*NODE, NSET=NALL
1, 0.5000000000, 0.0000000000, 0.0000000000
2, 0.4993977281, 0.0245338372, 0.0000000000
3, 0.4975923633, 0.0490085702, 0.0000000000
4, 0.4945882550, 0.0733652372, 0.0000000000
5, 0.4903926402, 0.0975451610, 0.0000000000
6, 0.4850156266, 0.1214900900, 0.0000000000
7, 0.4784701679, 0.1451423386, 0.0000000000
8, 0.4707720326, 0.1684449267, 0.0000000000
9, 0.4619397663, 0.1913417162, 0.0000000000
10, 0.4519946466, 0.2137775467, 0.0000000000
11, 0.4409606322, 0.2356983684, 0.0000000000
12, 0.4288643050, 0.2570513721, 0.0000000000
13, 0.4157348062, 0.2777851165, 0.0000000000
14, 0.4016037657, 0.2978496522, 0.0000000000
15, 0.3865052267, 0.3171966421, 0.0000000000
16, 0.3704755627, 0.3357794774, 0.0000000000
17, 0.3535533906, 0.3535533906, 0.0000000000
18, 0.3357794774, 0.3704755627, 0.0000000000
19, 0.3171966421, 0.3865052267, 0.0000000000
20, 0.2978496522, 0.4016037657, 0.0000000000
21, 0.2777851165, 0.4157348062, 0.0000000000
22, 0.2570513721, 0.4288643050, 0.0000000000
23, 0.2356983684, 0.4409606322, 0.0000000000
24, 0.2137775467, 0.4519946466, 0.0000000000
25, 0.1913417162, 0.4619397663, 0.0000000000
26, 0.1684449267, 0.4707720326, 0.0000000000
27, 0.1451423386, 0.4784701679, 0.0000000000
28, 0.1214900900, 0.4850156266, 0.0000000000
29, 0.0975451610, 0.4903926402, 0.0000000000
30, 0.0733652372, 0.4945882550, 0.0000000000
31, 0.0490085702, 0.4975923633, 0.0000000000
32, 0.0245338372, 0.4993977281, 0.0000000000
33, 0.0000000000, 0.5000000000, 0.0000000000
34, -0.0245338372, 0.4993977281, 0.0000000000
35, -0.0490085702, 0.4975923633, 0.0000000000
36, -0.0733652372, 0.4945882550, 0.0000000000
37, -0.0975451610, 0.4903926402, 0.0000000000
38, -0.1214900900, 0.4850156266, 0.0000000000
39, -0.1451423386, 0.4784701679, 0.0000000000
40, -0.1684449267, 0.4707720326, 0.0000000000
41, -0.1913417162, 0.4619397663, 0.0000000000
42, -0.2137775467, 0.4519946466, 0.0000000000
43, -0.2356983684, 0.4409606322, 0.0000000000
44, -0.2570513721, 0.4288643050, 0.0000000000
45, -0.2777851165, 0.4157348062, 0.0000000000
46, -0.2978496522, 0.4016037657, 0.0000000000
47, -0.3171966421, 0.3865052267, 0.0000000000
48, -0.3357794774, 0.3704755627, 0.0000000000
49, -0.3535533906, 0.3535533906, 0.0000000000
50, -0.3704755627, 0.3357794774, 0.0000000000
51, -0.3865052267, 0.3171966421, 0.0000000000
52, -0.4016037657, 0.2978496522, 0.0000000000
53, -0.4157348062, 0.2777851165, 0.0000000000
54, -0.4288643050, 0.2570513721, 0.0000000000
55, -0.4409606322, 0.2356983684, 0.0000000000
56, -0.4519946466, 0.2137775467, 0.0000000000
57, -0.4619397663, 0.1913417162, 0.0000000000
58, -0.4707720326, 0.1684449267, 0.0000000000
59, -0.4784701679, 0.1451423386, 0.0000000000
60, -0.4850156266, 0.1214900900, 0.0000000000
61, -0.4903926402, 0.0975451610, 0.0000000000
62, -0.4945882550, 0.0733652372, 0.0000000000
63, -0.4975923633, 0.0490085702, 0.0000000000
64, -0.4993977281, 0.0245338372, 0.0000000000
65, -0.5000000000, 0.0000000000, 0.0000000000
66, -0.4993977281, -0.0245338372, 0.0000000000
67, -0.4975923633, -0.0490085702, 0.0000000000
68, -0.4945882550, -0.0733652372, 0.0000000000
69, -0.4903926402, -0.0975451610, 0.0000000000
70, -0.4850156266, -0.1214900900, 0.0000000000
71, -0.4784701679, -0.1451423386, 0.0000000000
72, -0.4707720326, -0.1684449267, 0.0000000000
73, -0.4619397663, -0.1913417162, 0.0000000000
74, -0.4519946466, -0.2137775467, 0.0000000000
75, -0.4409606322, -0.2356983684, 0.0000000000
76, -0.4288643050, -0.2570513721, 0.0000000000
77, -0.4157348062, -0.2777851165, 0.0000000000
78, -0.4016037657, -0.2978496522, 0.0000000000
79, -0.3865052267, -0.3171966421, 0.0000000000
80, -0.3704755627, -0.3357794774, 0.0000000000
81, -0.3535533906, -0.3535533906, 0.0000000000
82, -0.3357794774, -0.3704755627, 0.0000000000
83, -0.3171966421, -0.3865052267, 0.0000000000
84, -0.2978496522, -0.4016037657, 0.0000000000
85, -0.2777851165, -0.4157348062, 0.0000000000
86, -0.2570513721, -0.4288643050, 0.0000000000
87, -0.2356983684, -0.4409606322, 0.0000000000
88, -0.2137775467, -0.4519946466, 0.0000000000
89, -0.1913417162, -0.4619397663, 0.0000000000
90, -0.1684449267, -0.4707720326, 0.0000000000
91, -0.1451423386, -0.4784701679, 0.0000000000
92, -0.1214900900, -0.4850156266, 0.0000000000
93, -0.0975451610, -0.4903926402, 0.0000000000
94, -0.0733652372, -0.4945882550, 0.0000000000
95, -0.0490085702, -0.4975923633, 0.0000000000
96, -0.0245338372, -0.4993977281, 0.0000000000
97, -0.0000000000, -0.5000000000, 0.0000000000
98, 0.0245338372, -0.4993977281, 0.0000000000
99, 0.0490085702, -0.4975923633, 0.0000000000
100, 0.0733652372, -0.4945882550, 0.0000000000
101, 0.0975451610, -0.4903926402, 0.0000000000
102, 0.1214900900, -0.4850156266, 0.0000000000
103, 0.1451423386, -0.4784701679, 0.0000000000
104, 0.1684449267, -0.4707720326, 0.0000000000
105, 0.1913417162, -0.4619397663, 0.0000000000
106, 0.2137775467, -0.4519946466, 0.0000000000
107, 0.2356983684, -0.4409606322, 0.0000000000
108, 0.2570513721, -0.4288643050, 0.0000000000
109, 0.2777851165, -0.4157348062, 0.0000000000
110, 0.2978496522, -0.4016037657, 0.0000000000
111, 0.3171966421, -0.3865052267, 0.0000000000
112, 0.3357794774, -0.3704755627, 0.0000000000
113, 0.3535533906, -0.3535533906, 0.0000000000
114, 0.3704755627, -0.3357794774, 0.0000000000
115, 0.3865052267, -0.3171966421, 0.0000000000
116, 0.4016037657, -0.2978496522, 0.0000000000
117, 0.4157348062, -0.2777851165, 0.0000000000
118, 0.4288643050, -0.2570513721, 0.0000000000
119, 0.4409606322, -0.2356983684, 0.0000000000
120, 0.4519946466, -0.2137775467, 0.0000000000
121, 0.4619397663, -0.1913417162, 0.0000000000
122, 0.4707720326, -0.1684449267, 0.0000000000
123, 0.4784701679, -0.1451423386, 0.0000000000
124, 0.4850156266, -0.1214900900, 0.0000000000
125, 0.4903926402, -0.0975451610, 0.0000000000
126, 0.4945882550, -0.0733652372, 0.0000000000
127, 0.4975923633, -0.0490085702, 0.0000000000
128, 0.4993977281, -0.0245338372, 0.0000000000
129, -0.3970594836, -0.2249314191, 0.0000000000
130, -0.3455481540, 0.2980718875, 0.0000000000
131, -0.4551080959, 0.0335707900, 0.0000000000
132, -0.4398139852, -0.1217129216, 0.0000000000
133, -0.4175714667, -0.1850967011, 0.0000000000
134, -0.4174916393, -0.2365060924, 0.0000000000
135, -0.3734373731, -0.2630042718, 0.0000000000
136, -0.3431775688, 0.3267322068, 0.0000000000
137, -0.3633296048, 0.3134102725, 0.0000000000
138, -0.3734373731, 0.2630042718, 0.0000000000
139, 0.4562071388, -0.0111992567, 0.0000000000
140, 0.1642361498, 0.4257662081, 0.0000000000
141, -0.1217129216, 0.4398139852, 0.0000000000
142, -0.2441432648, 0.3855443465, 0.0000000000
143, -0.4785273563, 0.0352982984, 0.0000000000
144, -0.4566191724, -0.0112093715, 0.0000000000
145, -0.4333120400, 0.1431469625, 0.0000000000
146, -0.4500322029, 0.0780879948, 0.0000000000
147, -0.4624462309, -0.1279761075, 0.0000000000
148, -0.4500322029, -0.0780879948, 0.0000000000
149, -0.4388664842, -0.1945361331, 0.0000000000
150, -0.4053181481, -0.2566648866, 0.0000000000
151, -0.4185577033, -0.2108029901, 0.0000000000
152, -0.3924816709, -0.2764167796, 0.0000000000
153, -0.3458465082, -0.2983292496, 0.0000000000
154, -0.2980718875, 0.3455481540, 0.0000000000
155, -0.3782088723, 0.2951571009, 0.0000000000
156, -0.3924816709, 0.2764167796, 0.0000000000
157, -0.3974023139, 0.2251256301, 0.0000000000
158, 0.4796829546, -0.0117755556, 0.0000000000
159, 0.4555191368, 0.0336011102, 0.0000000000
160, 0.1642361498, -0.4257662081, 0.0000000000
161, 0.3855443465, -0.2441432648, 0.0000000000
162, 0.4398139852, -0.1217129216, 0.0000000000
163, 0.4533217157, -0.0559119008, 0.0000000000
164, 0.1726875247, 0.4476755738, 0.0000000000
165, 0.1218228493, 0.4402112129, 0.0000000000
166, 0.3597576204, 0.2807576026, 0.0000000000
167, 0.2627669480, 0.3731003992, 0.0000000000
168, 0.2053630047, 0.4079862190, 0.0000000000
169, -0.1279761075, 0.4624462309, 0.0000000000
170, -0.1643844833, 0.4261507483, 0.0000000000
171, -0.0111992567, 0.4562071388, 0.0000000000
172, -0.0780879948, 0.4500322029, 0.0000000000
173, -0.2567065542, 0.4053839484, 0.0000000000
174, -0.2053630047, 0.4079862190, 0.0000000000
175, -0.4796050944, 0.0117736442, 0.0000000000
176, -0.4761416458, 0.0587264707, 0.0000000000
177, -0.4799055174, -0.0117810192, 0.0000000000
178, -0.4556097042, 0.1505131158, 0.0000000000
179, -0.4175714667, 0.1850967011, 0.0000000000
180, -0.4729826303, 0.0820702717, 0.0000000000
181, -0.4555357515, -0.1504886851, 0.0000000000
182, -0.4680926929, -0.1051137293, 0.0000000000
183, -0.4729826303, -0.0820702717, 0.0000000000
184, -0.3952932367, -0.1988234815, 0.0000000000
185, -0.3782022655, -0.2951519449, 0.0000000000
186, -0.3634907579, -0.3135492841, 0.0000000000
187, -0.3149403924, -0.3307922388, 0.0000000000
188, -0.2915216180, 0.3735504315, 0.0000000000
189, -0.3134102725, 0.3633296048, 0.0000000000
190, -0.4053110678, 0.2566604031, 0.0000000000
191, -0.4176768157, 0.2366109935, 0.0000000000
192, 0.4796050944, 0.0117736442, 0.0000000000
193, 0.4784496837, -0.0352925689, 0.0000000000
194, 0.4787493830, 0.0353146761, 0.0000000000
195, 0.4500143307, 0.0780848937, 0.0000000000
196, 0.1726875247, -0.4476755738, 0.0000000000
197, 0.2053630047, -0.4079862190, 0.0000000000
198, -0.0780175315, -0.4496261132, 0.0000000000
199, 0.0558614483, -0.4529126576, 0.0000000000
200, 0.1218228493, -0.4402112129, 0.0000000000
201, 0.4053839484, -0.2567065542, 0.0000000000
202, 0.4079862190, -0.2053630047, 0.0000000000
203, 0.3146680912, -0.3305062318, 0.0000000000
204, 0.3600825435, -0.2810111750, 0.0000000000
205, 0.4624462309, -0.1279761075, 0.0000000000
206, 0.4261507483, -0.1643844833, 0.0000000000
207, 0.4764398993, -0.0587632568, 0.0000000000
208, 0.1504886851, 0.4555357515, 0.0000000000
209, 0.1944143526, 0.4385917518, 0.0000000000
210, 0.1280354858, 0.4626607963, 0.0000000000
211, 0.0780848937, 0.4500143307, 0.0000000000
212, 0.3782702716, 0.2952050173, 0.0000000000
213, 0.3308047358, 0.3149522906, 0.0000000000
214, 0.4171946682, 0.1849296778, 0.0000000000
215, 0.3858925594, 0.2443637682, 0.0000000000
216, 0.2762885875, 0.3922996521, 0.0000000000
217, 0.2983410977, 0.3458602434, 0.0000000000
218, 0.2158359635, 0.4287924147, 0.0000000000
219, -0.1504886851, 0.4555357515, 0.0000000000
220, -0.1051137293, 0.4680926929, 0.0000000000
221, -0.1727676481, 0.4478832859, 0.0000000000
222, -0.0117755556, 0.4796829546, 0.0000000000
223, 0.0336011102, 0.4555191368, 0.0000000000
224, -0.0820702717, 0.4729826303, 0.0000000000
225, -0.2762437414, 0.3922359756, 0.0000000000
226, -0.2364677037, 0.4174238738, 0.0000000000
227, -0.2158359635, 0.4287924147, 0.0000000000
228, -0.4784413259, -0.0352919524, 0.0000000000
229, -0.4623711685, 0.1279553350, 0.0000000000
230, -0.4476029090, 0.1726594948, 0.0000000000
231, -0.4388664842, 0.1945361331, 0.0000000000
232, -0.4475958241, -0.1726617813, 0.0000000000
233, -0.3820985568, -0.1524669352, 0.0000000000
234, -0.3498941890, -0.2150085190, 0.0000000000
235, -0.3474514758, -0.3308013046, 0.0000000000
236, -0.3310075759, -0.3476681293, 0.0000000000
237, -0.2810005327, -0.3600689066, 0.0000000000
238, -0.3308067909, 0.3474572382, 0.0000000000
239, -0.4285168818, 0.2156972720, 0.0000000000
240, 0.4761333283, 0.0587254449, 0.0000000000
241, 0.4729729699, 0.0820685955, 0.0000000000
242, 0.4401945828, 0.1218182472, 0.0000000000
243, 0.1944143526, -0.4385917518, 0.0000000000
244, 0.1504886851, -0.4555357515, 0.0000000000
245, 0.2158359635, -0.4287924147, 0.0000000000
246, 0.2443540637, -0.3858772343, 0.0000000000
247, -0.0820322105, -0.4727632780, 0.0000000000
248, -0.0336011102, -0.4555191368, 0.0000000000
249, -0.1849296778, -0.4171946682, 0.0000000000
250, -0.1218228493, -0.4402112129, 0.0000000000
251, 0.0587360045, -0.4762189437, 0.0000000000
252, 0.0112093715, -0.4566191724, 0.0000000000
253, 0.1280354858, -0.4626607963, 0.0000000000
254, 0.4174238738, -0.2364677037, 0.0000000000
255, 0.3922359756, -0.2762437414, 0.0000000000
256, 0.4287924147, -0.2158359635, 0.0000000000
257, 0.3308604948, -0.3475136452, 0.0000000000
258, 0.2810111750, -0.3600825435, 0.0000000000
259, 0.3784457810, -0.2953419863, 0.0000000000
260, 0.4680926929, -0.1051137293, 0.0000000000
261, 0.4555357515, -0.1504886851, 0.0000000000
262, 0.4478832859, -0.1727676481, 0.0000000000
263, 0.1051118931, 0.4680845160, 0.0000000000
264, 0.0820685955, 0.4729729699, 0.0000000000
265, 0.3632706306, 0.3133594010, 0.0000000000
266, 0.3922359756, 0.2762437414, 0.0000000000
267, 0.3476748842, 0.3310140071, 0.0000000000
268, 0.4386629538, 0.1944459143, 0.0000000000
269, 0.4055720381, 0.2568256607, 0.0000000000
270, 0.2566648866, 0.4053181481, 0.0000000000
271, 0.2951571009, 0.3782088723, 0.0000000000
272, 0.3135556883, 0.3634981821, 0.0000000000
273, -0.1944109565, 0.4385840902, 0.0000000000
274, -0.0352925689, 0.4784496837, 0.0000000000
275, 0.0117736442, 0.4796050944, 0.0000000000
276, 0.0353146761, 0.4787493830, 0.0000000000
277, -0.2647112471, 0.3672180495, 0.0000000000
278, -0.4761353728, -0.0587305192, 0.0000000000
279, -0.4680880724, 0.1051078920, 0.0000000000
280, -0.4210494841, -0.1506477004, 0.0000000000
281, -0.3952333700, -0.1737844168, 0.0000000000
282, -0.3748762222, -0.2133184414, 0.0000000000
283, -0.3133541906, -0.3632645904, 0.0000000000
284, -0.2953362338, -0.3784384099, 0.0000000000
285, -0.2443545149, -0.3858779468, 0.0000000000
286, -0.3157282261, 0.3244022617, 0.0000000000
287, 0.4680849298, 0.1051119860, 0.0000000000
288, 0.4626518073, 0.1280329982, 0.0000000000
289, 0.2364635729, -0.4174165820, 0.0000000000
290, 0.2568204152, -0.4055637545, 0.0000000000
291, -0.0587264707, -0.4761416458, 0.0000000000
292, -0.1051137293, -0.4680926929, 0.0000000000
293, -0.0353146761, -0.4787493830, 0.0000000000
294, -0.1944459143, -0.4386629538, 0.0000000000
295, -0.1280354858, -0.4626607963, 0.0000000000
296, 0.0820188954, -0.4726865410, 0.0000000000
297, 0.0352925689, -0.4784496837, 0.0000000000
298, 0.0117810192, -0.4799055174, 0.0000000000
299, 0.4385840902, -0.1944109565, 0.0000000000
300, 0.3474572382, -0.3308067909, 0.0000000000
301, 0.3133594010, -0.3632706306, 0.0000000000
302, 0.2953419863, -0.3784457810, 0.0000000000
303, 0.4726816397, -0.0820132918, 0.0000000000
304, 0.0587254968, 0.4761337492, 0.0000000000
305, 0.3308010121, 0.3474511686, 0.0000000000
306, 0.4285239887, 0.2157008493, 0.0000000000
307, 0.4397665638, 0.1629822537, 0.0000000000
308, 0.2364607764, 0.4174211467, 0.0000000000
309, -0.0587304102, 0.4761353289, 0.0000000000
310, -0.4448488007, -0.0438197405, 0.0000000000
311, -0.4337852294, 0.1086635749, 0.0000000000
312, -0.4017381404, -0.1550712254, 0.0000000000
313, -0.3965350368, -0.1189535165, 0.0000000000
314, -0.4074882270, -0.1358092371, 0.0000000000
315, -0.4184043056, -0.1167290839, 0.0000000000
316, -0.4035263658, -0.0790731196, 0.0000000000
317, -0.4341917877, -0.0973868764, 0.0000000000
318, -0.4056548698, -0.0999992764, 0.0000000000
319, -0.3674943145, -0.0933094484, 0.0000000000
320, -0.3759746897, -0.2382140008, 0.0000000000
321, -0.3601222206, -0.1807129658, 0.0000000000
322, -0.2762391488, -0.3922294546, 0.0000000000
323, -0.2568206590, -0.4055641396, 0.0000000000
324, 0.2762391601, -0.3922294706, 0.0000000000
325, -0.0115090585, -0.4688270676, 0.0000000000
326, -0.1726594948, -0.4476029090, 0.0000000000
327, -0.2163933384, -0.4160910582, 0.0000000000
328, 0.1051170306, -0.4680860203, 0.0000000000
329, 0.3632693074, -0.3133520749, 0.0000000000
330, 0.4385945850, -0.0872478525, 0.0000000000
331, 0.4174165301, 0.2364689259, 0.0000000000
332, 0.4465683580, 0.1424687495, 0.0000000000
333, 0.4111226213, 0.1421001885, 0.0000000000
334, 0.2299057632, 0.3835632122, 0.0000000000
335, -0.0438262982, 0.4450355641, 0.0000000000
336, -0.4267053821, -0.0750917727, 0.0000000000
337, -0.3443467723, -0.2475018265, 0.0000000000
338, -0.3763841736, -0.1706931277, 0.0000000000
339, -0.3773488792, -0.1904651171, 0.0000000000
340, -0.3548368056, -0.1539285703, 0.0000000000
341, -0.0108694977, -0.4427742500, 0.0000000000
342, -0.1504824230, -0.4555317254, 0.0000000000
343, -0.2352091491, -0.4054593315, 0.0000000000
344, -0.2091930347, -0.3813823288, 0.0000000000
345, 0.0872363760, -0.4385968678, 0.0000000000
346, 0.3313407633, -0.3003176590, 0.0000000000
347, 0.3943876507, 0.2107979571, 0.0000000000
348, -0.4094662196, -0.0441907057, 0.0000000000
349, 0.0247131649, -0.4105569668, 0.0000000000
350, -0.0448284723, -0.4088498155, 0.0000000000
351, -0.1506587178, -0.4210455420, 0.0000000000
352, 0.0114653046, -0.4316836851, 0.0000000000
353, -0.0326332086, -0.4306011274, 0.0000000000
354, 0.0326724915, -0.4443704087, 0.0000000000
355, -0.0099069609, -0.4035648456, 0.0000000000
356, -0.0590875739, -0.4311388396, 0.0000000000
357, 0.0542877552, -0.4214389126, 0.0000000000
358, -0.0263706698, -0.4127955197, 0.0000000000
359, -0.0097256389, -0.4231858135, 0.0000000000
360, -0.0303708977, -0.3863632015, 0.0000000000
361, -0.2219397870, 0.3399198395, 0.0000000000
362, -0.3670150185, -0.1261033523, 0.0000000000
363, -0.3099981689, -0.1766903508, 0.0000000000
364, -0.0914703142, -0.3947168740, 0.0000000000
365, -0.0559095682, -0.4533282015, 0.0000000000
366, 0.0103548404, -0.3586871089, 0.0000000000
367, -0.2394757627, 0.3596008278, 0.0000000000
368, -0.2694142233, 0.3036753903, 0.0000000000
369, -0.3844610852, -0.1336185448, 0.0000000000
370, -0.3787100439, -0.1098738252, 0.0000000000
371, -0.3356274876, -0.1716328692, 0.0000000000
372, -0.3413457026, -0.1937861469, 0.0000000000
373, -0.3138473087, -0.1287278982, 0.0000000000
374, -0.3079985347, -0.2195514411, 0.0000000000
375, -0.3307881099, -0.1471088146, 0.0000000000
376, -0.3283056922, -0.2113716081, 0.0000000000
377, -0.3256845309, -0.2341614156, 0.0000000000
378, -0.3112087531, -0.1982240196, 0.0000000000
379, -0.2717960092, -0.2031968987, 0.0000000000
380, -0.2899764707, -0.1886167976, 0.0000000000
381, -0.3067224176, -0.1522917821, 0.0000000000
382, -0.3401388263, -0.1214934951, 0.0000000000
383, -0.3113695881, -0.2739107031, 0.0000000000
384, -0.2911199517, -0.2086676378, 0.0000000000
385, -0.2802652624, -0.2440306109, 0.0000000000
386, -0.2764785317, -0.2235208575, 0.0000000000
387, -0.2420137622, -0.2404885631, 0.0000000000
388, -0.2525185842, -0.2183396983, 0.0000000000
389, -0.2550397429, -0.1636779053, 0.0000000000
390, -0.3241334031, -0.2560550764, 0.0000000000
391, -0.3432077903, -0.2729712713, 0.0000000000
392, -0.3013231556, -0.2532393483, 0.0000000000
393, -0.2746579588, -0.1297375153, 0.0000000000
394, -0.2689910773, -0.1810743346, 0.0000000000
395, -0.2080023461, -0.2107919792, 0.0000000000
396, -0.3607693559, -0.2839601178, 0.0000000000
397, -0.3277006055, -0.2874012085, 0.0000000000
398, -0.3261441573, -0.3105152405, 0.0000000000
399, -0.3056021552, -0.2975225672, 0.0000000000
400, -0.2783000482, -0.2772057480, 0.0000000000
401, -0.2944195757, -0.1357127343, 0.0000000000
402, -0.2814047099, -0.1582250168, 0.0000000000
403, -0.2935728703, -0.1028469759, 0.0000000000
404, -0.2495926514, -0.1947729730, 0.0000000000
405, -0.2291960414, -0.2208437809, 0.0000000000
406, -0.2007801223, -0.2533884551, 0.0000000000
407, -0.2103984402, -0.2331087377, 0.0000000000
408, -0.1696389368, -0.2261979722, 0.0000000000
409, -0.1909932854, -0.2239052097, 0.0000000000
410, -0.1762516757, -0.1871962219, 0.0000000000
411, -0.1887993982, -0.2034717672, 0.0000000000
412, -0.2113775888, -0.1730903440, 0.0000000000
413, -0.0860299549, -0.4224865719, 0.0000000000
414, -0.0621089363, -0.3818484967, 0.0000000000
415, -0.0061049830, -0.3782685387, 0.0000000000
416, 0.0101136746, -0.3936400342, 0.0000000000
417, -0.0325875444, -0.3392990975, 0.0000000000
418, 0.0471698176, -0.3764184171, 0.0000000000
419, -0.0248419639, -0.3625185449, 0.0000000000
420, 0.0310894293, -0.3902959608, 0.0000000000
421, 0.0523471514, -0.3986727942, 0.0000000000
422, -0.0090142100, -0.3443370820, 0.0000000000
423, -0.0507054533, -0.3582445139, 0.0000000000
424, 0.0824504600, -0.4075725305, 0.0000000000
425, 0.0261089542, -0.3171761123, 0.0000000000
426, -0.0450223862, -0.3755466987, 0.0000000000
427, -0.0752314958, -0.3166537515, 0.0000000000
428, 0.0736470253, -0.3819880945, 0.0000000000
429, 0.0123777720, -0.3357098727, 0.0000000000
430, -0.0903986234, -0.3536246716, 0.0000000000
431, -0.0571031002, -0.3339903257, 0.0000000000
432, 0.0374591938, -0.3494957265, 0.0000000000
433, -0.0128880269, -0.3026376794, 0.0000000000
434, -0.0713540544, -0.3628254248, 0.0000000000
435, -0.0776012027, -0.3372781692, 0.0000000000
436, -0.1129777524, -0.3227651238, 0.0000000000
437, -0.0454142181, -0.3036210937, 0.0000000000
438, -0.0170034853, -0.3240496372, 0.0000000000
439, 0.0045139792, -0.3155303742, 0.0000000000
440, 0.0181646305, -0.2789147230, 0.0000000000
441, 0.0060592212, -0.2952540849, 0.0000000000
442, -0.0162151055, -0.2660976415, 0.0000000000
443, -0.0417729471, -0.3224566868, 0.0000000000
444, -0.2057228954, 0.3720221343, 0.0000000000
445, -0.2523221484, 0.3305016906, 0.0000000000
446, -0.2896481992, 0.3205702995, 0.0000000000
447, -0.3515026594, -0.1358917033, 0.0000000000
448, -0.3560221722, -0.1095422330, 0.0000000000
449, -0.3268942085, -0.0873610735, 0.0000000000
450, -0.3470883387, -0.0910582274, 0.0000000000
451, -0.3435453075, -0.0534110284, 0.0000000000
452, -0.3596408763, -0.0708865710, 0.0000000000
453, -0.3753165663, -0.0402986733, 0.0000000000
454, -0.3814223195, -0.0758445316, 0.0000000000
455, -0.1128525174, -0.4133236189, 0.0000000000
456, -0.0990989137, -0.4410974555, 0.0000000000
457, -0.0695342136, -0.4048371334, 0.0000000000
458, 0.1234028899, -0.3791742513, 0.0000000000
459, 0.0285919018, -0.3679066159, 0.0000000000
460, 0.0655920621, -0.3545611949, 0.0000000000
461, -0.2261258544, 0.3753942365, 0.0000000000
462, -0.2253617412, 0.3978169736, 0.0000000000
463, -0.2562548587, 0.3496230761, 0.0000000000
464, -0.2774257062, 0.3502776885, 0.0000000000
465, -0.3080927169, 0.2857036591, 0.0000000000
466, -0.2703439152, 0.3231258946, 0.0000000000
467, -0.3224801747, -0.1087097856, 0.0000000000
468, -0.3879878132, -0.0934905653, 0.0000000000
469, -0.1290002590, -0.3731780114, 0.0000000000
470, -0.1307095137, -0.4223062597, 0.0000000000
471, -0.1319143213, -0.3976704843, 0.0000000000
472, -0.1123212226, -0.3875820385, 0.0000000000
473, -0.0960403780, -0.3740376100, 0.0000000000
474, -0.1121290403, -0.3586048975, 0.0000000000
475, -0.1681799722, -0.3809360834, 0.0000000000
476, -0.1417405839, -0.3413761846, 0.0000000000
477, -0.1473308310, -0.3834166699, 0.0000000000
478, -0.1472485962, -0.3620356864, 0.0000000000
479, -0.1600254022, -0.4012555603, 0.0000000000
480, -0.1811181875, -0.3419417491, 0.0000000000
481, -0.1613496264, -0.3472122285, 0.0000000000
482, -0.1618908009, -0.3095327835, 0.0000000000
483, -0.1758342957, -0.3618321677, 0.0000000000
484, -0.2006229589, -0.3577702362, 0.0000000000
485, -0.1887200022, -0.3780804334, 0.0000000000
486, -0.1959263624, -0.3985195244, 0.0000000000
487, -0.2189301143, -0.3152794135, 0.0000000000
488, -0.2297221713, -0.3605699077, 0.0000000000
489, -0.2037842305, -0.3339430420, 0.0000000000
490, -0.1852634771, -0.3175744238, 0.0000000000
491, -0.2269827061, -0.3372916408, 0.0000000000
492, -0.1839871514, -0.2832973572, 0.0000000000
493, -0.2593447456, -0.3129738161, 0.0000000000
494, -0.2552191913, -0.3457690039, 0.0000000000
495, -0.2394861086, -0.3202385738, 0.0000000000
496, -0.2374060818, -0.2837779520, 0.0000000000
497, 0.0989217823, -0.3875980380, 0.0000000000
498, 0.1104403808, -0.4138749987, 0.0000000000
499, 0.1005703487, -0.3526038385, 0.0000000000
500, 0.0896510023, -0.3696253628, 0.0000000000
501, 0.0564510885, -0.3246731759, 0.0000000000
502, -0.2906605554, 0.2987939255, 0.0000000000
503, -0.2761712050, 0.2613463790, 0.0000000000
504, -0.2758475351, 0.2829985258, 0.0000000000
505, -0.2376260868, 0.2715986749, 0.0000000000
506, -0.2537091549, 0.2874497331, 0.0000000000
507, -0.2216511286, 0.3038922226, 0.0000000000
508, -0.2273911267, -0.3788016563, 0.0000000000
509, -0.2594937984, -0.3684528845, 0.0000000000
510, -0.2796126427, -0.3321805541, 0.0000000000
511, 0.0939794622, -0.4216753430, 0.0000000000
512, 0.1378131122, -0.4176723983, 0.0000000000
513, -0.2833665778, -0.3079220054, 0.0000000000
514, -0.3010438202, -0.3167473940, 0.0000000000
515, -0.2978175308, -0.3452532819, 0.0000000000
516, 0.1417507636, -0.4374075718, 0.0000000000
517, 0.1617287922, -0.3867745169, 0.0000000000
518, 0.1263105973, -0.4000318839, 0.0000000000
519, 0.1556117082, -0.4067443388, 0.0000000000
520, 0.1804982983, -0.4069269344, 0.0000000000
521, 0.1943025871, -0.3752529763, 0.0000000000
522, 0.1935143839, -0.3937545611, 0.0000000000
523, 0.2178708695, -0.3855246126, 0.0000000000
524, 0.2237070356, -0.4034878513, 0.0000000000
525, 0.2242955057, -0.3386087316, 0.0000000000
526, 0.2144668337, -0.3611606320, 0.0000000000
527, 0.2411204780, -0.3593592062, 0.0000000000
528, 0.1794028715, -0.3324611576, 0.0000000000
529, 0.1928874837, -0.3517558213, 0.0000000000
530, 0.1641015427, -0.3575142966, 0.0000000000
531, 0.2608720574, -0.3704068799, 0.0000000000
532, 0.2613064679, -0.3464499555, 0.0000000000
533, 0.2859974355, -0.3318183377, 0.0000000000
534, 0.1752318249, -0.3731431810, 0.0000000000
535, 0.1348561166, -0.3224532569, 0.0000000000
536, 0.1450015604, -0.3706917683, 0.0000000000
537, 0.1421365403, -0.3461081924, 0.0000000000
538, 0.1568667439, -0.3286267500, 0.0000000000
539, 0.1198923853, -0.3400065736, 0.0000000000
540, 0.1749321548, -0.2905936165, 0.0000000000
541, 0.0962570629, -0.3047033476, 0.0000000000
542, 0.1190449250, -0.3598236873, 0.0000000000
543, 0.1521598445, -0.3030839893, 0.0000000000
544, 0.0987059979, -0.3286272731, 0.0000000000
545, 0.1719104356, -0.3120887505, 0.0000000000
546, 0.2051503903, -0.3114279328, 0.0000000000
547, 0.1414040144, -0.2564697789, 0.0000000000
548, 0.1239596604, -0.2953049369, 0.0000000000
549, 0.1149597565, -0.3148761792, 0.0000000000
550, 0.0783294482, -0.3186257832, 0.0000000000
551, 0.0824304596, -0.3419535795, 0.0000000000
552, 0.1533557400, -0.2782600336, 0.0000000000
553, 0.0626126180, -0.2798838502, 0.0000000000
554, 0.1860079875, -0.2461777938, 0.0000000000
555, 0.1322200343, -0.2756799207, 0.0000000000
556, 0.1027577424, -0.2497941867, 0.0000000000
557, 0.1057554625, -0.2760916534, 0.0000000000
558, 0.1211394470, -0.2585821077, 0.0000000000
559, 0.1275271544, -0.2216024558, 0.0000000000
560, 0.0621349250, -0.3026366096, 0.0000000000
561, 0.1651574373, -0.2576141014, 0.0000000000
562, 0.0401401905, -0.2907934370, 0.0000000000
563, 0.1606453582, -0.2246623278, 0.0000000000
564, 0.0407369717, -0.2634227012, 0.0000000000
565, 0.2984748926, -0.3485914930, 0.0000000000
566, 0.2990053728, -0.3021576465, 0.0000000000
567, 0.2514558359, -0.3016780304, 0.0000000000
568, 0.0830738671, -0.2653575980, 0.0000000000
569, 0.0653261700, -0.2226818116, 0.0000000000
570, 0.0831930299, -0.2871991284, 0.0000000000
571, 0.0802184093, -0.2415168200, 0.0000000000
572, 0.1000231527, -0.2224144237, 0.0000000000
573, 0.0563706556, -0.2450675638, 0.0000000000
574, 0.0211646496, -0.2179990312, 0.0000000000
575, 0.0649465866, -0.2614977281, 0.0000000000
576, 0.0320881723, -0.2402207955, 0.0000000000
577, 0.0431782759, -0.2209735354, 0.0000000000
578, 0.0016343683, -0.2413952180, 0.0000000000
579, 0.0572805253, -0.1825655671, 0.0000000000
580, 0.0353057633, -0.1962900410, 0.0000000000
581, 0.0556459185, -0.2037583336, 0.0000000000
582, 0.0825159303, -0.2019507469, 0.0000000000
583, 0.0219634382, -0.1504726131, 0.0000000000
584, -0.0074606119, -0.1838924815, 0.0000000000
585, 0.0350960443, -0.1714997138, 0.0000000000
586, 0.0120376315, -0.1965935272, 0.0000000000
587, 0.0658049901, -0.1377056756, 0.0000000000
588, 0.0119644799, -0.1713321002, 0.0000000000
589, -0.0133818516, -0.2142996473, 0.0000000000
590, 0.0456846828, -0.1502719383, 0.0000000000
591, -0.0200141571, -0.1431769620, 0.0000000000
592, 0.0334683194, -0.1083210528, 0.0000000000
593, -0.0079954421, -0.1617643468, 0.0000000000
594, 0.0336603401, -0.1310193191, 0.0000000000
595, -0.0469551053, -0.1737765206, 0.0000000000
596, 0.0029342327, -0.1199293076, 0.0000000000
597, -0.0257812462, -0.1732647549, 0.0000000000
598, -0.0357603019, -0.1986708881, 0.0000000000
599, 0.0238916330, -0.2990743722, 0.0000000000
600, 0.0440322403, -0.3097858568, 0.0000000000
601, 0.2998311927, -0.3202025305, 0.0000000000
602, 0.3166077178, -0.3118791438, 0.0000000000
603, 0.2811631951, -0.3120155284, 0.0000000000
604, 0.2754457144, -0.2805916505, 0.0000000000
605, 0.2659933741, -0.3262102380, 0.0000000000
606, 0.2450279815, -0.3320178189, 0.0000000000
607, 0.2283398701, -0.3154270929, 0.0000000000
608, 0.2226009944, -0.2794717721, 0.0000000000
609, 0.2193316677, -0.2984292487, 0.0000000000
610, 0.1987882926, -0.2851257792, 0.0000000000
611, 0.2057052559, -0.2612852191, 0.0000000000
612, 0.1845416563, -0.2682297956, 0.0000000000
613, 0.2463928665, -0.2404270124, 0.0000000000
614, 0.2148368819, -0.2289847827, 0.0000000000
615, 0.2289906084, -0.2565941223, 0.0000000000
616, 0.2491394645, -0.2745527165, 0.0000000000
617, 0.0047303708, -0.2624323740, 0.0000000000
618, 0.0229005942, -0.2568585065, 0.0000000000
619, 0.1129378077, -0.1936448045, 0.0000000000
620, -0.0269601771, -0.2395334221, 0.0000000000
621, 0.0031757655, -0.2228322443, 0.0000000000
622, -0.0854885496, -0.2060690025, 0.0000000000
623, 0.2672629697, -0.2559206694, 0.0000000000
624, 0.3150891856, -0.2537504109, 0.0000000000
625, 0.2914821403, -0.2615802749, 0.0000000000
626, 0.2842938979, -0.2111769053, 0.0000000000
627, 0.3103824550, -0.2790621760, 0.0000000000
628, 0.2694684046, -0.2311469855, 0.0000000000
629, 0.3356002879, -0.2706579483, 0.0000000000
630, 0.2958488231, -0.2352432654, 0.0000000000
631, 0.2434862541, -0.1963700659, 0.0000000000
632, 0.2507826865, -0.2180130448, 0.0000000000
633, 0.2296331929, -0.2130917084, 0.0000000000
634, 0.2069168644, -0.1801732312, 0.0000000000
635, 0.2054939336, -0.2054524267, 0.0000000000
636, 0.2229173862, -0.1934288793, 0.0000000000
637, 0.2384157326, -0.1584365441, 0.0000000000
638, 0.1727347048, -0.1909288102, 0.0000000000
639, 0.1924687120, -0.2242446464, 0.0000000000
640, 0.1918566088, -0.1920051555, 0.0000000000
641, 0.1837207823, -0.1661487958, 0.0000000000
642, 0.1813464464, -0.2083302590, 0.0000000000
643, -0.0547537373, -0.2662310240, 0.0000000000
644, -0.0616677515, -0.1953569748, 0.0000000000
645, -0.0925676204, -0.1584852849, 0.0000000000
646, -0.0603782320, -0.2300662172, 0.0000000000
647, -0.0823175489, -0.1812788114, 0.0000000000
648, -0.0506727836, -0.2123270646, 0.0000000000
649, -0.0681034131, -0.1611853731, 0.0000000000
650, -0.1278492192, -0.1880525974, 0.0000000000
651, -0.0457428011, -0.1476842091, 0.0000000000
652, -0.1041281049, -0.1910868488, 0.0000000000
653, -0.0762133467, -0.1224863189, 0.0000000000
654, -0.1134142509, -0.1694435395, 0.0000000000
655, -0.1213675527, -0.2316207150, 0.0000000000
656, -0.0784955069, -0.1431638805, 0.0000000000
657, -0.1089224415, -0.1293409719, 0.0000000000
658, -0.0392860744, -0.1088542163, 0.0000000000
659, -0.1514701661, -0.1548268266, 0.0000000000
660, -0.1070315042, -0.2137849904, 0.0000000000
661, -0.0356859643, -0.1294046646, 0.0000000000
662, -0.0185484413, -0.1158118795, 0.0000000000
663, -0.0553194145, -0.1222535662, 0.0000000000
664, -0.0005080400, -0.0797877388, 0.0000000000
665, -0.0660927717, -0.0930701961, 0.0000000000
666, -0.0219535455, -0.0915773849, 0.0000000000
667, -0.1346472757, -0.1678762722, 0.0000000000
668, -0.1225147579, -0.1481213665, 0.0000000000
669, -0.1555107573, -0.1774042807, 0.0000000000
670, -0.0905968359, -0.2416742907, 0.0000000000
671, -0.0032281965, -0.1002393788, 0.0000000000
672, 0.0176891450, -0.0926147593, 0.0000000000
673, -0.0321305830, -0.0476655968, 0.0000000000
674, -0.1448212042, -0.1176681501, 0.0000000000
675, -0.1753708275, -0.1621997173, 0.0000000000
676, -0.1557404591, -0.2037800187, 0.0000000000
677, 0.0534216577, -0.0724957828, 0.0000000000
678, -0.0208493652, -0.0681862651, 0.0000000000
679, -0.1287549894, -0.1292960781, 0.0000000000
680, -0.1187691469, -0.0985854756, 0.0000000000
681, -0.1715827319, -0.1320537968, 0.0000000000
682, -0.1914071993, -0.1741483863, 0.0000000000
683, -0.1999278932, -0.1459771339, 0.0000000000
684, 0.0383926979, -0.0875944805, 0.0000000000
685, 0.0659284117, -0.1050848993, 0.0000000000
686, 0.0240417777, -0.0582807236, 0.0000000000
687, -0.0491160740, -0.0703646078, 0.0000000000
688, -0.0024866857, -0.0447301460, 0.0000000000
689, -0.0418026811, -0.0889968778, 0.0000000000
690, 0.3578251748, -0.2522259855, 0.0000000000
691, 0.1414716662, -0.1622432065, 0.0000000000
692, 0.2093324968, -0.1499827314, 0.0000000000
693, -0.0355111294, -0.2584475015, 0.0000000000
694, -0.0372889750, -0.2817300452, 0.0000000000
695, -0.0187162052, -0.2847468631, 0.0000000000
696, -0.0323988338, -0.2203367300, 0.0000000000
697, -0.1451603151, -0.2258567019, 0.0000000000
698, -0.1569295618, -0.2597440840, 0.0000000000
699, -0.1571955645, -0.2406642517, 0.0000000000
700, -0.1790349742, -0.2468649150, 0.0000000000
701, -0.1358069747, -0.2499078317, 0.0000000000
702, -0.1753329106, -0.2659209179, 0.0000000000
703, -0.1591667962, -0.2848156814, 0.0000000000
704, -0.1116871532, -0.2541085217, 0.0000000000
705, -0.1331183069, -0.3001950683, 0.0000000000
706, -0.1373816431, -0.2741240367, 0.0000000000
707, -0.0860548325, -0.2734814919, 0.0000000000
708, -0.0919281006, -0.1006306343, 0.0000000000
709, -0.1524999742, -0.1354683567, 0.0000000000
710, -0.1837037511, -0.0774201675, 0.0000000000
711, -0.1823166246, -0.1460159541, 0.0000000000
712, -0.1910829629, -0.1281694227, 0.0000000000
713, -0.1762152049, -0.1044201579, 0.0000000000
714, -0.2270735875, -0.1213936569, 0.0000000000
715, -0.0808624131, -0.0289045125, 0.0000000000
716, 0.0054860455, -0.0618647998, 0.0000000000
717, 0.0347989819, -0.0044777875, 0.0000000000
718, 0.3742013942, -0.2654228505, 0.0000000000
719, 0.3583740474, -0.2025363882, 0.0000000000
720, 0.1619379620, -0.1713168216, 0.0000000000
721, 0.1651636641, -0.1364224550, 0.0000000000
722, 0.1411410106, -0.1906075541, 0.0000000000
723, 0.2204287755, -0.1660624688, 0.0000000000
724, 0.2361207427, -0.1780489579, 0.0000000000
725, 0.2722817687, -0.1741524921, 0.0000000000
726, 0.2388603924, -0.1026530836, 0.0000000000
727, -0.1426951915, -0.3196831133, 0.0000000000
728, -0.1115994445, -0.2832920353, 0.0000000000
729, -0.1062572994, -0.1115336849, 0.0000000000
730, -0.1627659383, -0.1163706484, 0.0000000000
731, -0.1518817242, -0.0905781342, 0.0000000000
732, -0.2282625742, -0.1499857840, 0.0000000000
733, -0.2049678965, -0.1029485688, 0.0000000000
734, -0.1025045788, -0.0622822763, 0.0000000000
735, -0.0591422967, -0.0451575044, 0.0000000000
736, -0.0225123788, 0.0063525808, 0.0000000000
737, 0.0218327728, -0.0298622113, 0.0000000000
738, 0.3214823532, -0.2081287989, 0.0000000000
739, 0.3656429171, -0.2274645104, 0.0000000000
740, 0.3887447491, -0.2201117066, 0.0000000000
741, 0.3422664014, -0.2207571049, 0.0000000000
742, 0.3837647340, -0.1936889069, 0.0000000000
743, 0.3215713263, -0.2314000252, 0.0000000000
744, 0.3362713484, -0.2477785594, 0.0000000000
745, 0.1872143610, -0.1433124250, 0.0000000000
746, 0.2075226756, -0.1159779082, 0.0000000000
747, 0.1827716451, -0.1188003475, 0.0000000000
748, 0.1901437542, -0.0735123788, 0.0000000000
749, 0.1427285192, -0.0963973083, 0.0000000000
750, 0.1928444758, -0.0971960214, 0.0000000000
751, 0.1595906736, -0.1132459454, 0.0000000000
752, 0.2165821476, -0.0937713453, 0.0000000000
753, 0.1679260273, -0.0880417446, 0.0000000000
754, 0.1269691889, -0.1290314418, 0.0000000000
755, 0.2434661418, -0.0587190322, 0.0000000000
756, 0.1468722927, -0.1285624806, 0.0000000000
757, 0.2349674284, -0.0800365280, 0.0000000000
758, 0.2770068244, -0.0844436545, 0.0000000000
759, 0.2150353730, -0.0597373001, 0.0000000000
760, 0.2566086453, -0.0763114480, 0.0000000000
761, 0.2812238936, -0.0442172069, 0.0000000000
762, 0.2643901506, -0.0567929401, 0.0000000000
763, 0.2505137163, -0.0206634909, 0.0000000000
764, 0.1282573764, -0.2034359400, 0.0000000000
765, 0.1450032882, -0.2132069932, 0.0000000000
766, -0.1135285120, -0.3029852847, 0.0000000000
767, -0.0952921044, -0.3123750885, 0.0000000000
768, -0.0811406564, -0.2951923436, 0.0000000000
769, -0.1369117329, -0.1011415843, 0.0000000000
770, -0.1310661332, -0.0769684087, 0.0000000000
771, -0.1575393618, -0.0592017631, 0.0000000000
772, -0.2157641754, -0.1361847373, 0.0000000000
773, -0.2492478742, -0.1347923376, 0.0000000000
774, -0.2554357110, -0.0995035882, 0.0000000000
775, -0.2591843863, -0.1183478029, 0.0000000000
776, -0.2741179560, -0.1055821024, 0.0000000000
777, -0.2789967882, -0.0697263429, 0.0000000000
778, -0.2339605706, -0.1718720394, 0.0000000000
779, -0.2237869886, -0.1932031988, 0.0000000000
780, -0.2042492122, -0.1913731260, 0.0000000000
781, -0.1041104360, -0.0833578472, 0.0000000000
782, -0.0815916299, -0.0744747072, 0.0000000000
783, -0.0823082540, -0.0516723079, 0.0000000000
784, -0.1018498265, -0.0390015384, 0.0000000000
785, -0.1092553614, 0.0032518688, 0.0000000000
786, -0.1269040744, -0.0499464836, 0.0000000000
787, -0.0995937696, -0.0168304626, 0.0000000000
788, -0.0688241318, 0.0103380401, 0.0000000000
789, -0.1303679665, -0.0192706441, 0.0000000000
790, -0.0880404130, 0.0010931043, 0.0000000000
791, -0.0948209932, 0.0397807376, 0.0000000000
792, -0.0968866611, 0.0194806836, 0.0000000000
793, -0.1318402228, 0.0332925698, 0.0000000000
794, -0.0429860532, -0.0178673533, 0.0000000000
795, 0.0500658408, -0.0419627316, 0.0000000000
796, 0.0049745374, -0.0052473851, 0.0000000000
797, 0.3034719723, -0.2167760809, 0.0000000000
798, 0.3011908814, -0.1889456055, 0.0000000000
799, 0.4054250028, -0.1797125439, 0.0000000000
800, 0.4201732814, -0.1911930182, 0.0000000000
801, 0.3886154525, -0.1353074845, 0.0000000000
802, 0.4032824907, -0.1551394324, 0.0000000000
803, 0.4227924169, -0.1397859276, 0.0000000000
804, 0.3715333636, -0.1632804167, 0.0000000000
805, 0.4093090100, -0.1100347950, 0.0000000000
806, 0.3868939649, -0.1747660296, 0.0000000000
807, 0.2303846657, -0.1318117095, 0.0000000000
808, 0.2083820321, -0.0770918516, 0.0000000000
809, 0.1781701491, -0.0224988660, 0.0000000000
810, 0.2284279118, -0.0362537280, 0.0000000000
811, -0.2298200303, -0.0956332248, 0.0000000000
812, -0.2107009227, -0.0765528901, 0.0000000000
813, -0.2470017353, -0.0686203452, 0.0000000000
814, -0.0665821630, -0.0627142760, 0.0000000000
815, -0.1476063884, -0.0367506831, 0.0000000000
816, -0.1699744645, 0.0025483030, 0.0000000000
817, -0.1865920250, -0.0329252184, 0.0000000000
818, -0.1532482519, -0.0139467122, 0.0000000000
819, -0.1677303645, -0.0412701342, 0.0000000000
820, -0.1851583790, -0.0551733740, 0.0000000000
821, -0.1363463047, 0.0068641325, 0.0000000000
822, -0.1732805598, -0.0175319640, 0.0000000000
823, -0.2072242860, -0.0016310356, 0.0000000000
824, -0.2146368789, -0.0459026661, 0.0000000000
825, -0.1191543870, -0.0335379052, 0.0000000000
826, -0.0192974108, -0.0261140448, 0.0000000000
827, 0.0007625077, -0.0248977899, 0.0000000000
828, -0.0613265800, -0.0254369068, 0.0000000000
829, 0.0411684829, -0.0237350320, 0.0000000000
830, 0.0779298448, -0.0170763207, 0.0000000000
831, 0.0572536664, -0.0077327116, 0.0000000000
832, 0.0841553970, 0.0242486443, 0.0000000000
833, 0.0752147309, 0.0044641258, 0.0000000000
834, 0.1147575573, -0.0014929494, 0.0000000000
835, 0.0487345042, 0.0283430090, 0.0000000000
836, 0.0958262460, 0.0070621505, 0.0000000000
837, 0.1204577338, 0.0363445931, 0.0000000000
838, 0.0421702444, -0.0582814589, 0.0000000000
839, 0.2815978476, -0.1915908040, 0.0000000000
840, 0.2653377229, -0.2038076376, 0.0000000000
841, 0.3350893826, -0.1734121587, 0.0000000000
842, 0.3658795610, -0.1832187661, 0.0000000000
843, 0.2701817981, -0.1343310300, 0.0000000000
844, 0.2254204704, -0.1145575745, 0.0000000000
845, 0.1414364286, -0.0503295139, 0.0000000000
846, 0.1913511777, -0.0463170341, 0.0000000000
847, 0.2135861026, 0.0082107929, 0.0000000000
848, -0.2297294102, -0.0766048820, 0.0000000000
849, -0.2310905370, -0.0568750967, 0.0000000000
850, -0.2423148004, -0.0222210847, 0.0000000000
851, -0.2524148726, -0.0446371960, 0.0000000000
852, -0.2871024180, -0.0155244986, 0.0000000000
853, -0.2656530012, -0.0251890053, 0.0000000000
854, -0.2592452053, 0.0176671468, 0.0000000000
855, -0.2866542315, -0.0431644759, 0.0000000000
856, -0.2684929303, -0.0028572641, 0.0000000000
857, -0.3002531864, 0.0237986066, 0.0000000000
858, -0.2881322263, 0.0059916528, 0.0000000000
859, -0.3257595230, -0.0065919889, 0.0000000000
860, -0.3051712554, -0.0056065911, 0.0000000000
861, -0.3141595951, -0.0333817107, 0.0000000000
862, -0.1556039388, 0.0237459484, 0.0000000000
863, -0.1922649831, 0.0331296505, 0.0000000000
864, -0.1756215442, 0.0218465593, 0.0000000000
865, -0.1682538829, 0.0506311644, 0.0000000000
866, -0.2028634598, -0.0599686099, 0.0000000000
867, -0.2075966647, -0.0243250633, 0.0000000000
868, -0.0128347199, -0.0090815928, 0.0000000000
869, 0.0854388613, -0.0535259056, 0.0000000000
870, 0.0068625387, 0.0375924148, 0.0000000000
871, 0.3212764101, -0.1880231537, 0.0000000000
872, 0.3388011184, -0.1978975247, 0.0000000000
873, 0.3100914593, -0.1636143362, 0.0000000000
874, 0.2498145797, -0.1404745609, 0.0000000000
875, 0.2651738266, -0.1545612252, 0.0000000000
876, 0.2543461609, -0.1186650223, 0.0000000000
877, 0.2879783499, -0.1573725318, 0.0000000000
878, 0.2785241549, -0.1100617877, 0.0000000000
879, 0.2599429672, -0.0977577195, 0.0000000000
880, 0.2988186686, -0.1306062937, 0.0000000000
881, 0.3142229838, -0.0950933886, 0.0000000000
882, 0.2937440521, -0.0963063305, 0.0000000000
883, 0.3022664048, -0.0667086586, 0.0000000000
884, 0.1490101015, -0.0731691079, 0.0000000000
885, 0.1668953761, -0.0545627786, 0.0000000000
886, 0.1145783239, -0.0719112586, 0.0000000000
887, 0.1573664745, -0.0331978345, 0.0000000000
888, 0.1314890210, -0.0808943588, 0.0000000000
889, 0.1088774161, -0.1030519783, 0.0000000000
890, 0.1516163496, 0.0035584313, 0.0000000000
891, 0.1307780927, -0.0244465768, 0.0000000000
892, 0.1605781977, -0.0138674890, 0.0000000000
893, 0.1824047451, 0.0083749467, 0.0000000000
894, 0.2049851016, -0.0232156998, 0.0000000000
895, 0.2277021989, -0.0117866800, 0.0000000000
896, 0.2538462639, 0.0216492292, 0.0000000000
897, 0.2357396596, 0.0088678857, 0.0000000000
898, 0.2235718998, 0.0453212321, 0.0000000000
899, 0.2241668609, 0.0252624131, 0.0000000000
900, 0.1961482535, 0.0344695911, 0.0000000000
901, -0.2699140237, -0.0527231947, 0.0000000000
902, -0.3083702485, -0.0638096277, 0.0000000000
903, -0.3391458848, -0.0282945133, 0.0000000000
904, -0.3706419451, 0.0061123035, 0.0000000000
905, -0.3559015506, -0.0383031418, 0.0000000000
906, -0.3587050840, -0.0145798557, 0.0000000000
907, -0.3463370998, 0.0063441068, 0.0000000000
908, -0.3848859797, -0.0158939121, 0.0000000000
909, -0.3244984911, 0.0182484736, 0.0000000000
910, -0.4134137473, 0.0181843477, 0.0000000000
911, -0.3934091674, -0.0333144852, 0.0000000000
912, -0.3910398586, -0.0541033856, 0.0000000000
913, -0.4148735763, -0.0120174973, 0.0000000000
914, -0.3222146935, 0.0640037769, 0.0000000000
915, -0.3938908308, 0.0055476862, 0.0000000000
916, -0.3588636933, 0.0454604527, 0.0000000000
917, -0.3169039099, 0.0408040507, 0.0000000000
918, -0.3586586573, 0.0239621862, 0.0000000000
919, -0.3392717129, 0.0348971969, 0.0000000000
920, -0.3865665727, 0.0344461303, 0.0000000000
921, -0.2784325871, 0.0618184680, 0.0000000000
922, -0.3006318254, 0.0567367119, 0.0000000000
923, -0.2985407579, 0.0986307155, 0.0000000000
924, -0.3054944308, 0.0779786083, 0.0000000000
925, -0.3386280831, 0.1006316057, 0.0000000000
926, -0.3252559161, 0.0846324042, 0.0000000000
927, -0.3533536857, 0.0747360717, 0.0000000000
928, 0.0651328392, -0.0557576934, 0.0000000000
929, 0.0777487662, -0.0770507518, 0.0000000000
930, 0.0733488933, -0.0370183098, 0.0000000000
931, 0.0974401230, -0.0320552508, 0.0000000000
932, 0.0955158074, -0.0698393236, 0.0000000000
933, 0.1071539739, -0.0514910086, 0.0000000000
934, 0.0933531362, -0.0900034232, 0.0000000000
935, 0.0877960447, -0.1123740129, 0.0000000000
936, -0.0020292198, 0.0165227821, 0.0000000000
937, 0.0233437014, 0.0182260158, 0.0000000000
938, -0.0259755885, 0.0390396304, 0.0000000000
939, 0.3350783023, -0.1366519741, 0.0000000000
940, 0.2824052351, -0.0652766553, 0.0000000000
941, 0.3585629902, -0.0597053075, 0.0000000000
942, 0.1340288145, -0.0051101304, 0.0000000000
943, 0.1337007913, 0.0177312362, 0.0000000000
944, 0.1623789593, 0.0355729817, 0.0000000000
945, 0.1979286329, -0.0043942064, 0.0000000000
946, 0.1980402442, 0.0168065861, 0.0000000000
947, -0.3055711185, -0.0850717966, 0.0000000000
948, -0.3236964344, -0.0509609424, 0.0000000000
949, -0.4354419386, 0.0041128935, 0.0000000000
950, -0.4341055468, 0.0262986051, 0.0000000000
951, -0.4567079361, 0.0112091996, 0.0000000000
952, -0.4134488231, 0.0485346406, 0.0000000000
953, -0.4375772560, 0.0502365455, 0.0000000000
954, -0.4238410527, 0.0730898678, 0.0000000000
955, -0.2112847891, 0.0844454644, 0.0000000000
956, -0.3419013492, 0.0574242777, 0.0000000000
957, -0.3857310493, 0.1102822480, 0.0000000000
958, -0.3827155290, 0.0651059749, 0.0000000000
959, 0.1122904777, -0.0202824510, 0.0000000000
960, 0.1240058988, -0.0423712657, 0.0000000000
961, 0.3278734568, -0.1550342398, 0.0000000000
962, 0.3501295351, -0.1569011832, 0.0000000000
963, 0.3665168799, -0.1410148435, 0.0000000000
964, 0.3676736461, -0.0998578838, 0.0000000000
965, 0.3730315044, -0.1206032089, 0.0000000000
966, 0.3883349073, -0.1055862815, 0.0000000000
967, 0.3486461574, -0.1158366243, 0.0000000000
968, 0.4057328804, -0.0752265342, 0.0000000000
969, 0.3835596590, -0.0826848556, 0.0000000000
970, 0.3417641478, -0.0883231856, 0.0000000000
971, 0.3253850375, -0.1155041407, 0.0000000000
972, 0.3864172509, -0.0544912280, 0.0000000000
973, 0.3255203416, -0.0238636002, 0.0000000000
974, 0.1653208566, 0.0167676233, 0.0000000000
975, 0.1906231107, 0.0885099712, 0.0000000000
976, -0.4042634009, 0.0333700895, 0.0000000000
977, -0.4559210806, 0.0587439341, 0.0000000000
978, -0.4343125851, 0.0893394219, 0.0000000000
979, -0.4078907544, 0.0948673616, 0.0000000000
980, -0.1945380278, 0.0614698425, 0.0000000000
981, -0.3637517070, 0.0977836040, 0.0000000000
982, -0.3555605351, 0.1377631704, 0.0000000000
983, -0.3840249855, 0.0877073482, 0.0000000000
984, -0.3661690043, 0.1191077725, 0.0000000000
985, -0.3894939761, 0.1447155882, 0.0000000000
986, -0.3949844460, 0.0510752394, 0.0000000000
987, -0.4030112175, 0.0704736326, 0.0000000000
988, -0.3761989498, 0.0487156787, 0.0000000000
989, 0.0957707115, -0.0116001588, 0.0000000000
990, 0.3608611098, -0.0802937583, 0.0000000000
991, 0.3237331164, -0.0743767924, 0.0000000000
992, 0.3207017186, -0.0489813241, 0.0000000000
993, 0.3026642903, -0.0324999280, 0.0000000000
994, 0.3380912455, -0.0597842364, 0.0000000000
995, 0.3482358550, -0.0360740000, 0.0000000000
996, 0.2987824893, 0.0123357096, 0.0000000000
997, 0.2792061788, -0.0150506039, 0.0000000000
998, 0.3070463756, -0.0095346747, 0.0000000000
999, 0.3585237687, 0.0102995387, 0.0000000000
1000, 0.3286465152, 0.0111235749, 0.0000000000
1001, 0.3468399423, -0.0114363684, 0.0000000000
1002, 0.3785583250, -0.0219976367, 0.0000000000
1003, 0.3657391001, -0.0075871502, 0.0000000000
1004, 0.3976945297, 0.0079325559, 0.0000000000
1005, 0.3780277277, 0.0077686177, 0.0000000000
1006, 0.3875705115, 0.0427144014, 0.0000000000
1007, 0.3708039495, 0.0285170782, 0.0000000000
1008, 0.3540192931, 0.0653382288, 0.0000000000
1009, 0.3442053642, 0.0331990850, 0.0000000000
1010, 0.3676043569, 0.0492947247, 0.0000000000
1011, 0.3892525320, 0.0813990472, 0.0000000000
1012, 0.3689871709, -0.0410776403, 0.0000000000
1013, 0.4201404418, -0.0424411803, 0.0000000000
1014, 0.2010067749, 0.0622689693, 0.0000000000
1015, -0.4101728045, 0.1217832385, 0.0000000000
1016, -0.1621819691, 0.1026450415, 0.0000000000
1017, -0.2341033988, 0.0502220417, 0.0000000000
1018, 0.2673380281, -0.0305247232, 0.0000000000
1019, 0.2503034387, -0.0403048964, 0.0000000000
1020, 0.2614125416, -0.0002342861, 0.0000000000
1021, 0.2763535311, 0.0171813837, 0.0000000000
1022, 0.2961580536, 0.0545189021, 0.0000000000
1023, 0.2915213492, 0.0330571925, 0.0000000000
1024, 0.3144338723, 0.0294531568, 0.0000000000
1025, 0.2658781661, 0.0498290094, 0.0000000000
1026, 0.4058744990, -0.0557303820, 0.0000000000
1027, 0.4278698856, -0.0656387453, 0.0000000000
1028, 0.3986399918, -0.0336623093, 0.0000000000
1029, 0.4198757700, -0.0123714367, 0.0000000000
1030, 0.3972800975, -0.0128850422, 0.0000000000
1031, 0.1703612149, 0.0653173335, 0.0000000000
1032, -0.4113937905, 0.1436737936, 0.0000000000
1033, -0.4014964979, 0.1663219562, 0.0000000000
1034, -0.4237910138, 0.1635024337, 0.0000000000
1035, -0.3662760628, 0.1717502728, 0.0000000000
1036, -0.3877848295, 0.1943309907, 0.0000000000
1037, -0.3828827766, 0.1625251015, 0.0000000000
1038, -0.4278708411, 0.1258273567, 0.0000000000
1039, -0.1841667675, 0.0866204840, 0.0000000000
1040, -0.2163919599, 0.0631317789, 0.0000000000
1041, -0.2427740994, 0.0807221803, 0.0000000000
1042, -0.2135898141, 0.0406829698, 0.0000000000
1043, -0.2338157473, 0.0240140662, 0.0000000000
1044, -0.2090090779, 0.0197362717, 0.0000000000
1045, -0.2417203338, 0.0015683724, 0.0000000000
1046, -0.2254655049, -0.0107399699, 0.0000000000
1047, -0.2237980820, 0.0080408177, 0.0000000000
1048, 0.3261809986, 0.0562709107, 0.0000000000
1049, 0.2727042239, 0.1058518432, 0.0000000000
1050, 0.2453248060, 0.0419461472, 0.0000000000
1051, 0.2420747039, 0.0811565981, 0.0000000000
1052, 0.2371440712, 0.0610079808, 0.0000000000
1053, 0.2195760263, 0.0759847175, 0.0000000000
1054, 0.2216570475, 0.1184546066, 0.0000000000
1055, 0.2266058908, 0.0969261842, 0.0000000000
1056, 0.2492197820, 0.1036370796, 0.0000000000
1057, 0.2060829515, 0.1035414947, 0.0000000000
1058, 0.1874331661, 0.1386066266, 0.0000000000
1059, 0.2017031502, 0.1237041633, 0.0000000000
1060, 0.2209861146, 0.1564521402, 0.0000000000
1061, 0.1752766716, 0.1126826633, 0.0000000000
1062, 0.2574494152, 0.1419904964, 0.0000000000
1063, 0.2593802662, 0.1215165469, 0.0000000000
1064, 0.2908862717, 0.1348158274, 0.0000000000
1065, 0.2397066771, 0.1299891979, 0.0000000000
1066, 0.4385401798, -0.0272431905, 0.0000000000
1067, 0.4276581460, 0.0183984976, 0.0000000000
1068, 0.1796511162, 0.0468810332, 0.0000000000
1069, 0.1418063194, 0.0570371409, 0.0000000000
1070, -0.3383900732, 0.2198466699, 0.0000000000
1071, -0.4074449965, 0.2050900568, 0.0000000000
1072, -0.1595783297, 0.0759797567, 0.0000000000
1073, -0.2015814880, 0.1336057455, 0.0000000000
1074, 0.3432771949, 0.0510504588, 0.0000000000
1075, 0.2771918650, 0.0768777754, 0.0000000000
1076, 0.2606813037, 0.0876184921, 0.0000000000
1077, 0.2571124388, 0.0678756156, 0.0000000000
1078, 0.1658270574, 0.0897255990, 0.0000000000
1079, 0.1298553226, 0.1179556903, 0.0000000000
1080, 0.1518223638, 0.1089135906, 0.0000000000
1081, 0.1595181703, 0.1358845264, 0.0000000000
1082, 0.1296641503, 0.0862866386, 0.0000000000
1083, 0.3261996122, 0.1034817037, 0.0000000000
1084, 0.4154912116, 0.0051066442, 0.0000000000
1085, 0.4339297414, 0.0004431447, 0.0000000000
1086, 0.4092196162, 0.0230619971, 0.0000000000
1087, 0.4474589038, 0.0152416974, 0.0000000000
1088, 0.4265600904, 0.0528398595, 0.0000000000
1089, 0.1418942879, 0.0365303010, 0.0000000000
1090, -0.3593597288, 0.1998724852, 0.0000000000
1091, -0.1432517253, 0.0562330782, 0.0000000000
1092, -0.1165986297, 0.0551828491, 0.0000000000
1093, -0.1287779463, 0.0848228143, 0.0000000000
1094, -0.1995002661, 0.1076571883, 0.0000000000
1095, -0.1785248192, 0.1223972800, 0.0000000000
1096, -0.2358334900, 0.1178007986, 0.0000000000
1097, -0.1353381242, 0.1414925256, 0.0000000000
1098, -0.2202211786, 0.1035797882, 0.0000000000
1099, -0.1717947635, 0.1655604144, 0.0000000000
1100, -0.1542385477, 0.1258544607, 0.0000000000
1101, -0.1817840406, 0.1450117093, 0.0000000000
1102, -0.1381898210, 0.1073977584, 0.0000000000
1103, -0.1569606393, 0.1483851400, 0.0000000000
1104, -0.2102628755, 0.1715584157, 0.0000000000
1105, -0.0934647355, 0.1127949439, 0.0000000000
1106, -0.1339306779, 0.1832695871, 0.0000000000
1107, -0.2000975829, 0.1539144137, 0.0000000000
1108, -0.2304283917, 0.1481901139, 0.0000000000
1109, -0.1150661354, 0.1037889561, 0.0000000000
1110, -0.1503652689, 0.1690751844, 0.0000000000
1111, -0.1673107337, 0.2053063817, 0.0000000000
1112, -0.1639475382, 0.1848010338, 0.0000000000
1113, -0.1907517220, 0.1909332134, 0.0000000000
1114, -0.1007660256, 0.0790108778, 0.0000000000
1115, -0.1129860726, 0.1292089194, 0.0000000000
1116, -0.0741279536, 0.1556078770, 0.0000000000
1117, -0.1097679150, 0.1615433181, 0.0000000000
1118, -0.0898340765, 0.1369283974, 0.0000000000
1119, -0.0488674506, 0.1184255139, 0.0000000000
1120, -0.0667413780, 0.1334543105, 0.0000000000
1121, -0.0311625038, 0.1576254546, 0.0000000000
1122, -0.0523606980, 0.1505574250, 0.0000000000
1123, -0.0542912676, 0.1916699902, 0.0000000000
1124, -0.0591239189, 0.1708414473, 0.0000000000
1125, -0.0885687503, 0.1886481641, 0.0000000000
1126, 0.1686501355, 0.1867311632, 0.0000000000
1127, 0.1151936297, 0.0631345759, 0.0000000000
1128, 0.2990278092, 0.0950943976, 0.0000000000
1129, 0.3338892055, 0.0798732718, 0.0000000000
1130, 0.3611363764, 0.0964018770, 0.0000000000
1131, 0.3107350472, 0.0743752240, 0.0000000000
1132, 0.4626799721, 0.0056100347, 0.0000000000
1133, 0.4081431528, 0.0436267020, 0.0000000000
1134, 0.4079047484, 0.0671174118, 0.0000000000
1135, 0.4284347984, 0.0746158933, 0.0000000000
1136, 0.4357675926, 0.0978551007, 0.0000000000
1137, 0.4110039221, 0.0904859962, 0.0000000000
1138, 0.3884862098, 0.1138099673, 0.0000000000
1139, -0.3146948564, 0.1739760721, 0.0000000000
1140, -0.3672957404, 0.2291984725, 0.0000000000
1141, -0.2210835934, 0.1308526933, 0.0000000000
1142, -0.2771562846, 0.1408258831, 0.0000000000
1143, -0.1906055055, 0.1712743345, 0.0000000000
1144, -0.2032521068, 0.2376212719, 0.0000000000
1145, 0.1712548452, 0.1600200013, 0.0000000000
1146, 0.0813866698, 0.1003628484, 0.0000000000
1147, 0.0971798906, 0.0456827848, 0.0000000000
1148, 0.0884003598, 0.0727678030, 0.0000000000
1149, 0.0689710759, 0.0481496727, 0.0000000000
1150, 0.3070147799, 0.1174265376, 0.0000000000
1151, 0.3413275396, 0.1444635357, 0.0000000000
1152, 0.3279840765, 0.1261060492, 0.0000000000
1153, 0.3463695974, 0.1132733700, 0.0000000000
1154, 0.3140791788, 0.1502412785, 0.0000000000
1155, -0.3332439466, 0.1934496096, 0.0000000000
1156, -0.3805014629, 0.2135048011, 0.0000000000
1157, -0.3443312866, 0.2508313022, 0.0000000000
1158, -0.3845622663, 0.2435223817, 0.0000000000
1159, -0.2525215137, 0.1364442984, 0.0000000000
1160, -0.2584912480, 0.1743237611, 0.0000000000
1161, -0.2698262282, 0.1105946173, 0.0000000000
1162, -0.2620431324, 0.1543538496, 0.0000000000
1163, -0.2865612896, 0.1690155212, 0.0000000000
1164, -0.1900755006, 0.2161317391, 0.0000000000
1165, -0.1604508157, 0.2490810032, 0.0000000000
1166, -0.2291374106, 0.2069648613, 0.0000000000
1167, -0.1801513511, 0.2370013457, 0.0000000000
1168, -0.2078350521, 0.2039999937, 0.0000000000
1169, -0.1906570632, 0.2762394417, 0.0000000000
1170, -0.1912253807, 0.2550618172, 0.0000000000
1171, -0.2133841216, 0.2662529016, 0.0000000000
1172, -0.2089253272, 0.2869597531, 0.0000000000
1173, -0.1807870405, 0.3139841899, 0.0000000000
1174, -0.2006070145, 0.3064598307, 0.0000000000
1175, -0.1986704838, 0.3312249543, 0.0000000000
1176, -0.2310232119, 0.2439023228, 0.0000000000
1177, -0.2153925859, 0.3219573317, 0.0000000000
1178, -0.2355692170, 0.3188307270, 0.0000000000
1179, -0.1591656430, 0.3543069836, 0.0000000000
1180, -0.2044531636, 0.3512334785, 0.0000000000
1181, -0.1814211964, 0.3470500754, 0.0000000000
1182, -0.1638273983, 0.3308484752, 0.0000000000
1183, -0.1780933145, 0.3745993190, 0.0000000000
1184, -0.1424114940, 0.2923515655, 0.0000000000
1185, -0.1585485071, 0.3085798234, 0.0000000000
1186, -0.1199110567, 0.3343137233, 0.0000000000
1187, -0.1743218787, 0.2921307397, 0.0000000000
1188, -0.1423579172, 0.3387744404, 0.0000000000
1189, -0.1353055425, 0.3155548329, 0.0000000000
1190, -0.1688275096, 0.2701415143, 0.0000000000
1191, -0.1232268660, 0.3763361732, 0.0000000000
1192, -0.0977255262, 0.2913563076, 0.0000000000
1193, -0.1442480823, 0.2677216906, 0.0000000000
1194, -0.1380895684, 0.3602532804, 0.0000000000
1195, -0.1510289531, 0.3871199586, 0.0000000000
1196, -0.1113018377, 0.3115523780, 0.0000000000
1197, -0.1193046526, 0.2296783704, 0.0000000000
1198, -0.1203698400, 0.2783245620, 0.0000000000
1199, -0.0687116206, 0.3255213978, 0.0000000000
1200, -0.1371414606, 0.2451823611, 0.0000000000
1201, -0.1238834536, 0.2971346959, 0.0000000000
1202, -0.0916550706, 0.2546185607, 0.0000000000
1203, -0.0941148042, 0.3310620192, 0.0000000000
1204, -0.1524310045, 0.2253993997, 0.0000000000
1205, -0.1015719123, 0.2718503331, 0.0000000000
1206, -0.1175212919, 0.2560683112, 0.0000000000
1207, -0.0736153799, 0.2764698022, 0.0000000000
1208, -0.0853487159, 0.3102478265, 0.0000000000
1209, -0.0715912190, 0.3733245451, 0.0000000000
1210, -0.1039845508, 0.3567124578, 0.0000000000
1211, -0.1443178330, 0.2038352100, 0.0000000000
1212, -0.0605513649, 0.2999346894, 0.0000000000
1213, -0.0768929012, 0.3490168735, 0.0000000000
1214, -0.1185652534, 0.2039362096, 0.0000000000
1215, -0.0311512641, 0.3517722893, 0.0000000000
1216, -0.1121889482, 0.1831501613, 0.0000000000
1217, -0.0927276025, 0.2175600510, 0.0000000000
1218, -0.0544106676, 0.3568453365, 0.0000000000
1219, -0.0470851936, 0.3345743679, 0.0000000000
1220, -0.0337878526, 0.3955413189, 0.0000000000
1221, -0.0086310586, 0.3149268671, 0.0000000000
1222, -0.0495563955, 0.3791016786, 0.0000000000
1223, -0.0250873198, 0.3301736461, 0.0000000000
1224, -0.0682290321, 0.4127943033, 0.0000000000
1225, -0.0401721997, 0.3119496167, 0.0000000000
1226, 0.0101691440, 0.3517226680, 0.0000000000
1227, -0.0536784901, 0.3988377421, 0.0000000000
1228, -0.0399432391, 0.4200580042, 0.0000000000
1229, -0.0290626306, 0.2698155153, 0.0000000000
1230, -0.0104980579, 0.3459202313, 0.0000000000
1231, -0.0081584185, 0.3772944560, 0.0000000000
1232, 0.0007112538, 0.4172340417, 0.0000000000
1233, -0.0223631496, 0.4355816523, 0.0000000000
1234, -0.0405594144, 0.2893158291, 0.0000000000
1235, -0.0200766107, 0.4120148475, 0.0000000000
1236, -0.0518829780, 0.2695005737, 0.0000000000
1237, -0.0155916062, 0.2908968474, 0.0000000000
1238, -0.0687985879, 0.2541210933, 0.0000000000
1239, 0.0150442679, 0.2564757711, 0.0000000000
1240, -0.0806319831, 0.2357547599, 0.0000000000
1241, -0.0673277192, 0.2137923841, 0.0000000000
1242, -0.0582283641, 0.2343154332, 0.0000000000
1243, -0.0051279321, 0.2693658579, 0.0000000000
1244, -0.0410063438, 0.2144009370, 0.0000000000
1245, -0.0401908406, 0.2492272385, 0.0000000000
1246, 0.0252099897, 0.2946136811, 0.0000000000
1247, -0.0106825812, 0.2384439955, 0.0000000000
1248, 0.0043174761, 0.2981530803, 0.0000000000
1249, 0.0192889510, 0.3230950272, 0.0000000000
1250, 0.0140585270, 0.2771623218, 0.0000000000
1251, 0.0470523685, 0.2683677598, 0.0000000000
1252, 0.1964051063, 0.1622033869, 0.0000000000
1253, 0.2188909842, 0.2029031102, 0.0000000000
1254, 0.2133877600, 0.1793821576, 0.0000000000
1255, 0.2510881383, 0.1791510412, 0.0000000000
1256, 0.1932278105, 0.1965032782, 0.0000000000
1257, 0.2322875916, 0.1873644165, 0.0000000000
1258, 0.2531351053, 0.2188822524, 0.0000000000
1259, 0.1226009690, 0.1687581506, 0.0000000000
1260, 0.1050481659, 0.0916879292, 0.0000000000
1261, 0.1018458115, 0.1195599832, 0.0000000000
1262, 0.0551770106, 0.0790124354, 0.0000000000
1263, 0.3379457033, 0.1956562339, 0.0000000000
1264, -0.3402830977, 0.1681735880, 0.0000000000
1265, -0.3551203110, 0.1565847238, 0.0000000000
1266, -0.3354622634, 0.1467090097, 0.0000000000
1267, -0.3372540667, 0.1236846601, 0.0000000000
1268, -0.3180184270, 0.1109706961, 0.0000000000
1269, -0.2961551854, 0.1239381093, 0.0000000000
1270, -0.3167359468, 0.1337229901, 0.0000000000
1271, -0.3498714617, 0.2337070683, 0.0000000000
1272, -0.3315156117, 0.2372267493, 0.0000000000
1273, -0.3626871366, 0.2473116212, 0.0000000000
1274, -0.3041427561, 0.2163501858, 0.0000000000
1275, -0.3195462588, 0.2613405904, 0.0000000000
1276, -0.2344294295, 0.1720277801, 0.0000000000
1277, -0.2220310101, 0.1880190955, 0.0000000000
1278, -0.2425520614, 0.1911274774, 0.0000000000
1279, -0.2639200486, 0.2228266445, 0.0000000000
1280, -0.2665949766, 0.1979719894, 0.0000000000
1281, -0.2828567958, 0.2122934014, 0.0000000000
1282, -0.2844776972, 0.2374964087, 0.0000000000
1283, -0.2977069724, 0.1922466209, 0.0000000000
1284, -0.2978579558, 0.2555279809, 0.0000000000
1285, -0.3152170284, 0.2004823173, 0.0000000000
1286, -0.2767038492, 0.0866607927, 0.0000000000
1287, -0.2615879387, 0.0731275881, 0.0000000000
1288, -0.2579652374, 0.0495322673, 0.0000000000
1289, -0.2578976501, 0.0942117340, 0.0000000000
1290, -0.2793614405, 0.0370799225, 0.0000000000
1291, -0.2496249786, 0.0332389859, 0.0000000000
1292, -0.2533710042, 0.2532098035, 0.0000000000
1293, -0.2204937773, 0.2259230219, 0.0000000000
1294, -0.2422688515, 0.2252435131, 0.0000000000
1295, -0.2506721803, 0.2082540789, 0.0000000000
1296, -0.1934539239, 0.3898832024, 0.0000000000
1297, -0.1717298941, 0.3963554861, 0.0000000000
1298, -0.1268678289, 0.4081799699, 0.0000000000
1299, -0.1216661724, 0.3524232870, 0.0000000000
1300, -0.0969403822, 0.3828657398, 0.0000000000
1301, -0.1008426122, 0.2016376812, 0.0000000000
1302, -0.0225409694, 0.1883613854, 0.0000000000
1303, 0.0017900198, 0.3311075339, 0.0000000000
1304, 0.0654779571, 0.3535757496, 0.0000000000
1305, 0.2846886790, 0.1692827567, 0.0000000000
1306, 0.1861348619, 0.1785491318, 0.0000000000
1307, 0.1947142608, 0.2451969217, 0.0000000000
1308, 0.1456956018, 0.1575276197, 0.0000000000
1309, 0.1436768312, 0.1827375304, 0.0000000000
1310, 0.1243997416, 0.1430958329, 0.0000000000
1311, 0.1490838741, 0.2290051260, 0.0000000000
1312, 0.1407240504, 0.1334762981, 0.0000000000
1313, 0.0899097391, 0.1535724936, 0.0000000000
1314, 0.1529052815, 0.2051087951, 0.0000000000
1315, 0.1091557113, 0.1549215193, 0.0000000000
1316, 0.0977669219, 0.1794389659, 0.0000000000
1317, 0.1774372275, 0.2212855653, 0.0000000000
1318, 0.1196437592, 0.1960936452, 0.0000000000
1319, 0.1326111816, 0.2141171600, 0.0000000000
1320, 0.1144552712, 0.2507626824, 0.0000000000
1321, 0.1025704922, 0.2220539995, 0.0000000000
1322, 0.1287011939, 0.2350003746, 0.0000000000
1323, 0.1495204559, 0.2681356194, 0.0000000000
1324, 0.1344378975, 0.2545040520, 0.0000000000
1325, 0.1178141682, 0.2880570510, 0.0000000000
1326, 0.0425828017, 0.0548694730, 0.0000000000
1327, 0.0281954339, 0.0390510158, 0.0000000000
1328, 0.0157148452, 0.0648545936, 0.0000000000
1329, 0.0732383923, 0.0836030035, 0.0000000000
1330, 0.0592642186, 0.1007576286, 0.0000000000
1331, 0.0708390220, 0.1293397914, 0.0000000000
1332, 0.0269652157, 0.0955718111, 0.0000000000
1333, 0.3324171256, 0.1695829583, 0.0000000000
1334, -0.2990816909, 0.1491745661, 0.0000000000
1335, -0.3303230029, 0.2812807411, 0.0000000000
1336, -0.3230598877, 0.3028531014, 0.0000000000
1337, -0.3533774617, 0.2756745899, 0.0000000000
1338, -0.1840428686, 0.4151940587, 0.0000000000
1339, -0.1334146469, 0.3913013694, 0.0000000000
1340, -0.1140823314, 0.3935117920, 0.0000000000
1341, -0.1462001444, 0.4059695474, 0.0000000000
1342, -0.0931994374, 0.4080130441, 0.0000000000
1343, -0.1387380308, 0.4263512890, 0.0000000000
1344, -0.0775172878, 0.3937074317, 0.0000000000
1345, -0.0841784349, 0.4284956612, 0.0000000000
1346, -0.0998121942, 0.4445462659, 0.0000000000
1347, -0.1069195078, 0.4243947073, 0.0000000000
1348, -0.0393462738, 0.1764981807, 0.0000000000
1349, 0.0380848831, 0.3448492342, 0.0000000000
1350, 0.2952572201, 0.1533924473, 0.0000000000
1351, 0.3083032337, 0.1735289544, 0.0000000000
1352, 0.2752008932, 0.1515128038, 0.0000000000
1353, 0.2900054891, 0.2075015597, 0.0000000000
1354, 0.2935979665, 0.1875225665, 0.0000000000
1355, 0.3150781266, 0.1953717523, 0.0000000000
1356, 0.2703124494, 0.1936480172, 0.0000000000
1357, 0.3260076076, 0.2360518983, 0.0000000000
1358, 0.3262798209, 0.2141704855, 0.0000000000
1359, 0.3596370196, 0.2222564724, 0.0000000000
1360, 0.3055652739, 0.2248551881, 0.0000000000
1361, 0.2959377623, 0.2666921613, 0.0000000000
1362, 0.2779748880, 0.2339410579, 0.0000000000
1363, 0.3066516146, 0.2471314031, 0.0000000000
1364, 0.3310617245, 0.2673287833, 0.0000000000
1365, 0.0479842108, 0.1804343473, 0.0000000000
1366, 0.2023327144, 0.2214948494, 0.0000000000
1367, 0.2281251760, 0.2277967884, 0.0000000000
1368, 0.1688528795, 0.2456855399, 0.0000000000
1369, 0.1823775842, 0.2768809598, 0.0000000000
1370, 0.1820303368, 0.2585019954, 0.0000000000
1371, 0.2045473015, 0.2672693283, 0.0000000000
1372, 0.2175425416, 0.2482536114, 0.0000000000
1373, 0.2105012138, 0.3113759369, 0.0000000000
1374, 0.2504096840, 0.2522906054, 0.0000000000
1375, 0.2013040839, 0.2901622884, 0.0000000000
1376, 0.2313516684, 0.2716389931, 0.0000000000
1377, 0.1682967022, 0.3170730869, 0.0000000000
1378, 0.2237942604, 0.2930122444, 0.0000000000
1379, 0.1810052737, 0.2989627923, 0.0000000000
1380, 0.2654618430, 0.2957228183, 0.0000000000
1381, 0.1548855510, 0.2941479019, 0.0000000000
1382, 0.2450103128, 0.2884913234, 0.0000000000
1383, 0.2621530129, 0.2725451536, 0.0000000000
1384, 0.2438742500, 0.3242396755, 0.0000000000
1385, 0.2811316112, 0.2816607955, 0.0000000000
1386, 0.3087433566, 0.2941657852, 0.0000000000
1387, 0.2874448329, 0.3044575002, 0.0000000000
1388, 0.3071195478, 0.3179896596, 0.0000000000
1389, 0.2683944659, 0.3203723063, 0.0000000000
1390, 0.2598917927, 0.3461291913, 0.0000000000
1391, 0.0986973645, 0.2009123326, 0.0000000000
1392, 0.0631555851, 0.2183491532, 0.0000000000
1393, 0.0731020619, 0.1912645375, 0.0000000000
1394, 0.0833855179, 0.2146430540, 0.0000000000
1395, 0.0817165511, 0.2475014471, 0.0000000000
1396, -0.0087016082, 0.0577145578, 0.0000000000
1397, -0.0048317061, 0.0897987624, 0.0000000000
1398, -0.0471295042, 0.0759331595, 0.0000000000
1399, -0.0307707150, 0.0608015664, 0.0000000000
1400, -0.0258650955, 0.0825135924, 0.0000000000
1401, -0.0609297475, 0.0446051417, 0.0000000000
1402, -0.0234036529, 0.1094129105, 0.0000000000
1403, -0.0421282077, 0.0974194320, 0.0000000000
1404, -0.0692340473, 0.1003073384, 0.0000000000
1405, 0.0894528646, 0.1343115327, 0.0000000000
1406, 0.0386898396, 0.1257243343, 0.0000000000
1407, 0.3759587032, 0.1708880460, 0.0000000000
1408, -0.3177332517, 0.1547481354, 0.0000000000
1409, 0.0508712277, 0.3148045831, 0.0000000000
1410, 0.0384998283, 0.3909042336, 0.0000000000
1411, 0.2722447151, 0.2153768388, 0.0000000000
1412, 0.0618959704, 0.1559983314, 0.0000000000
1413, 0.2447924646, 0.2350170130, 0.0000000000
1414, 0.1643160802, 0.2786434098, 0.0000000000
1415, 0.1310286640, 0.3234894256, 0.0000000000
1416, 0.1374877497, 0.2841768167, 0.0000000000
1417, 0.1374755367, 0.3043617304, 0.0000000000
1418, 0.1176059077, 0.3083150806, 0.0000000000
1419, 0.0983920658, 0.3388349011, 0.0000000000
1420, 0.0829032618, 0.2978282385, 0.0000000000
1421, 0.3133495386, 0.2752976327, 0.0000000000
1422, 0.3303644887, 0.2894477198, 0.0000000000
1423, 0.3464376620, 0.3019263578, 0.0000000000
1424, 0.3151020513, 0.3358216980, 0.0000000000
1425, 0.2882606959, 0.3273674260, 0.0000000000
1426, 0.2410647699, 0.3617750201, 0.0000000000
1427, 0.1979581796, 0.3534493015, 0.0000000000
1428, 0.2183029986, 0.3638690725, 0.0000000000
1429, 0.2061875837, 0.3842717890, 0.0000000000
1430, 0.2192756773, 0.3368981709, 0.0000000000
1431, 0.1753731151, 0.3950718841, 0.0000000000
1432, 0.2791983917, 0.3577099413, 0.0000000000
1433, 0.0989594054, 0.2403632752, 0.0000000000
1434, 0.0970006599, 0.2600266289, 0.0000000000
1435, 0.0737032639, 0.2728677883, 0.0000000000
1436, 0.0063001709, 0.1189387807, 0.0000000000
1437, -0.0293140626, 0.1331923360, 0.0000000000
1438, -0.0029387678, 0.1474741884, 0.0000000000
1439, -0.0757259526, 0.1174627441, 0.0000000000
1440, -0.0878671510, 0.0939042169, 0.0000000000
1441, -0.0744323629, 0.0692361486, 0.0000000000
1442, 0.0557444252, 0.1188178074, 0.0000000000
1443, 0.0535871313, 0.1380007848, 0.0000000000
1444, 0.0411929265, 0.1073952386, 0.0000000000
1445, 0.0356153050, 0.1572144734, 0.0000000000
1446, 0.3543975977, 0.1632398457, 0.0000000000
1447, 0.3706577487, 0.1379841251, 0.0000000000
1448, 0.3585557559, 0.1857331938, 0.0000000000
1449, 0.3799894948, 0.1932366377, 0.0000000000
1450, 0.3962870553, 0.1787594174, 0.0000000000
1451, 0.3933231798, 0.1562284657, 0.0000000000
1452, 0.4136687941, 0.1635843805, 0.0000000000
1453, 0.0563477804, 0.3348784033, 0.0000000000
1454, 0.0737876265, 0.3193364848, 0.0000000000
1455, 0.0962909311, 0.3161880265, 0.0000000000
1456, 0.0371125171, 0.3266922971, 0.0000000000
1457, 0.0289713482, 0.3679607141, 0.0000000000
1458, 0.0516478242, 0.3719934938, 0.0000000000
1459, 0.0141606924, 0.3875619592, 0.0000000000
1460, 0.0912124702, 0.3873016321, 0.0000000000
1461, -0.0038353320, 0.3972890659, 0.0000000000
1462, 0.0652938404, 0.3955071536, 0.0000000000
1463, 0.0735889910, 0.3740679235, 0.0000000000
1464, 0.0955464292, 0.3631785026, 0.0000000000
1465, 0.1256156013, 0.3543553071, 0.0000000000
1466, 0.1166410290, 0.3794192404, 0.0000000000
1467, 0.0772660659, 0.1705278839, 0.0000000000
1468, 0.2377957925, 0.3426575251, 0.0000000000
1469, 0.0594560546, 0.2922947742, 0.0000000000
1470, 0.0095574664, 0.1009981781, 0.0000000000
1471, 0.0121364423, 0.0828412552, 0.0000000000
1472, 0.0299921378, 0.0770443146, 0.0000000000
1473, -0.0101867868, 0.1293641355, 0.0000000000
1474, 0.0190393145, 0.1388267008, 0.0000000000
1475, -0.0112697161, 0.1686226096, 0.0000000000
1476, 0.0129057648, 0.1659308943, 0.0000000000
1477, 0.0033548369, 0.1900609833, 0.0000000000
1478, 0.0255965256, 0.1849092433, 0.0000000000
1479, -0.0110950768, 0.2120964656, 0.0000000000
1480, 0.0412756620, 0.2051115000, 0.0000000000
1481, 0.0377262907, 0.2356790950, 0.0000000000
1482, -0.0927841564, 0.0601549374, 0.0000000000
1483, -0.0634252166, 0.0833650585, 0.0000000000
1484, 0.3536118498, 0.1304467397, 0.0000000000
1485, 0.3656544947, 0.1152544215, 0.0000000000
1486, 0.3914387911, 0.1346488297, 0.0000000000
1487, 0.0870397679, 0.4191585047, 0.0000000000
1488, 0.0466046729, 0.4240118422, 0.0000000000
1489, 0.1487927741, 0.3767930089, 0.0000000000
1490, 0.0418449177, 0.2862458076, 0.0000000000
1491, 0.0158076623, 0.2139825607, 0.0000000000
1492, 0.0599061289, 0.2409029837, 0.0000000000
1493, 0.0340250215, 0.2544097649, 0.0000000000
1494, 0.1109730088, 0.4060916352, 0.0000000000
1495, 0.0497511841, 0.4056957168, 0.0000000000
1496, 0.0672870350, 0.4154972175, 0.0000000000
1497, 0.0271191456, 0.4112361095, 0.0000000000
1498, 0.0634834322, 0.4356345676, 0.0000000000
1499, 0.0582526893, 0.4555491254, 0.0000000000
1500, 0.0164556897, 0.2352476650, 0.0000000000
1501, 0.1342686641, 0.3971036419, 0.0000000000
1502, 0.1548395589, 0.3964654612, 0.0000000000
1503, 0.1451419436, 0.4157325253, 0.0000000000
1504, 0.1064760718, 0.4263065208, 0.0000000000
1505, 0.1016451323, 0.4470600458, 0.0000000000
1506, 0.0186522188, 0.4350913780, 0.0000000000
1507, 0.0112064648, 0.4562237555, 0.0000000000
1508, -0.0018260225, 0.4377996515, 0.0000000000
1509, 0.1853186015, 0.4180767675, 0.0000000000
1510, 0.4538633089, 0.0559787016, 0.0000000000
1511, 0.3738874799, 0.2633236031, 0.0000000000
1512, -0.4382496533, -0.1412503115, 0.0000000000
1513, -0.4284052491, -0.1687904213, 0.0000000000
1514, -0.4593805306, -0.0306354356, 0.0000000000
1515, -0.4396835416, -0.0235260134, 0.0000000000
1516, -0.4217396495, -0.0297124913, 0.0000000000
1517, -0.4565349269, -0.0595782486, 0.0000000000
1518, 0.4485164387, -0.1041509160, 0.0000000000
1519, 0.4285267704, -0.1045210381, 0.0000000000
1520, 0.4542310576, -0.0754679407, 0.0000000000
1521, 0.2491633142, 0.3872106042, 0.0000000000
1522, 0.2240822261, 0.4022541730, 0.0000000000
1523, -0.0305312371, 0.4594368865, 0.0000000000
1524, -0.0596379994, 0.4565792076, 0.0000000000
1525, -0.0626633440, 0.4358345749, 0.0000000000
1526, -0.3572619209, -0.2329865691, 0.0000000000
1527, 0.0754169106, -0.4542319878, 0.0000000000
1528, 0.0676195624, -0.4360524755, 0.0000000000
1529, 0.1041034144, -0.4485351077, 0.0000000000
1530, 0.3508086982, -0.2982524451, 0.0000000000
1531, 0.4127805373, 0.2040260697, 0.0000000000
1532, 0.3990017105, 0.2298236253, 0.0000000000
1533, 0.3794475070, 0.2253734483, 0.0000000000
1534, -0.4272677387, -0.0545187973, 0.0000000000
1535, -0.1688346695, -0.4283798122, 0.0000000000
1536, 0.0359064271, -0.4257656829, 0.0000000000
1537, -0.2595477788, -0.2594491335, 0.0000000000
1538, -0.2577881061, -0.2800876589, 0.0000000000
1539, -0.2378417041, -0.2619344062, 0.0000000000
1540, -0.2159070551, -0.2724230837, 0.0000000000
1541, -0.2209539942, -0.2505358130, 0.0000000000
1542, -0.2183732724, -0.2937839055, 0.0000000000
1543, -0.1216459060, -0.3409003280, 0.0000000000
1544, 0.0388242904, -0.3308634844, 0.0000000000
1545, 0.2034691293, -0.3329450918, 0.0000000000
1546, 0.1429280480, -0.2356681381, 0.0000000000
1547, 0.0018468566, -0.1418062452, 0.0000000000
1548, 0.2694155208, -0.2979209044, 0.0000000000
1549, 0.0893137311, -0.1669832771, 0.0000000000
1550, -0.0796331731, -0.2250781593, 0.0000000000
1551, -0.0700265390, -0.2500865356, 0.0000000000
1552, 0.0524405199, -0.1213444891, 0.0000000000
1553, -0.1290951641, -0.2103476237, 0.0000000000
1554, -0.0604733443, -0.2875211781, 0.0000000000
1555, -0.1647767215, -0.0767050340, 0.0000000000
1556, -0.0459235143, 0.0053791550, 0.0000000000
1557, -0.0536851504, 0.0248932495, 0.0000000000
1558, -0.0345406951, 0.0216051638, 0.0000000000
1559, 0.4068110481, -0.1290978378, 0.0000000000
1560, -0.2625919608, -0.0809560232, 0.0000000000
1561, 0.1276755908, -0.1092503387, 0.0000000000
1562, 0.4576324198, -0.0355442875, 0.0000000000
1563, 0.1487847284, 0.0770790480, 0.0000000000
1564, 0.4361819028, 0.0359084361, 0.0000000000
1565, -0.1306981390, 0.1619051625, 0.0000000000
1566, -0.0903458426, 0.1681955204, 0.0000000000
1567, 0.3694571121, 0.0781483570, 0.0000000000
1568, 0.4147233181, 0.1162846752, 0.0000000000
1569, 0.3797235602, 0.0973882641, 0.0000000000
1570, -0.0290831362, 0.3730272960, 0.0000000000
1571, -0.0299211223, 0.2315640609, 0.0000000000
1572, -0.2928338475, 0.2740555344, 0.0000000000
1573, -0.3097765179, 0.2373469325, 0.0000000000
1574, 0.3506041247, 0.2481240769, 0.0000000000
1575, 0.3491058646, 0.2661448407, 0.0000000000
1576, 0.2766780545, 0.2559538940, 0.0000000000
1577, -0.0761494663, 0.0300685324, 0.0000000000
1578, 0.1850767128, 0.3733984120, 0.0000000000
1579, 0.1675606002, 0.3479545296, 0.0000000000
1580, 0.1859694022, 0.3329438346, 0.0000000000
1581, 0.1662351701, 0.3676181584, 0.0000000000
1582, 0.1493055805, 0.3566005319, 0.0000000000
1583, 0.1500545563, 0.3345872389, 0.0000000000
1584, 0.2034353916, 0.3280745777, 0.0000000000
1585, 0.1903643555, 0.3149486827, 0.0000000000
1586, 0.0971916864, 0.2816273529, 0.0000000000
1587, 0.0785365187, 0.3386169996, 0.0000000000
1588, 0.1174637796, 0.3370180972, 0.0000000000
1589, 0.1423029789, 0.4363746068, 0.0000000000
1590, -0.1977010614, -0.2999490077, 0.0000000000
1591, 0.0771866165, -0.1827702160, 0.0000000000
1592, 0.0674385399, -0.1627306619, 0.0000000000
1593, 0.1156500013, -0.1674445018, 0.0000000000
1594, 0.1254623789, -0.1494616739, 0.0000000000
1595, 0.1003097692, -0.1373358873, 0.0000000000
1596, 0.1100152059, -0.1215488094, 0.0000000000
1597, 0.0829811238, -0.1304053844, 0.0000000000
1598, 0.0808673537, -0.1492882630, 0.0000000000
1599, 0.2429506289, 0.1586332872, 0.0000000000
*ELEMENT, TYPE=S3, ELSET=EALL
1, 129, 151, 134
2, 295, 342, 91
3, 75, 76, 134
4, 188, 154, 464
5, 78, 152, 77
6, 91, 92, 295
7, 186, 80, 235
8, 186, 185, 79
9, 71, 181, 147
10, 235, 80, 81
11, 78, 185, 152
12, 153, 391, 396
13, 186, 153, 396
14, 80, 186, 79
15, 147, 182, 70
16, 55, 56, 239
17, 70, 182, 69
18, 194, 192, 2
19, 71, 147, 70
20, 190, 191, 157
21, 75, 134, 151
22, 48, 49, 238
23, 73, 74, 149
24, 191, 190, 54
25, 149, 232, 73
26, 188, 189, 154
27, 190, 157, 1158
28, 183, 68, 69
29, 236, 81, 82
30, 225, 142, 173
31, 95, 96, 293
32, 953, 954, 146
33, 94, 247, 93
34, 176, 180, 62
35, 291, 247, 94
36, 157, 191, 239
37, 99, 100, 251
38, 228, 66, 67
39, 251, 297, 99
40, 229, 59, 60
41, 297, 98, 99
42, 175, 177, 144
43, 1034, 230, 145
44, 155, 137, 51
45, 129, 134, 150
46, 182, 183, 69
47, 84, 284, 83
48, 282, 320, 1526
49, 185, 135, 152
50, 278, 183, 1517
51, 292, 93, 247
52, 72, 73, 232
53, 186, 235, 153
54, 132, 182, 147
55, 92, 93, 292
56, 1512, 181, 1513
57, 183, 182, 148
58, 87, 88, 327
59, 283, 236, 82
60, 146, 978, 279
61, 1544, 501, 600
62, 122, 123, 261
63, 76, 150, 134
64, 65, 66, 177
65, 186, 396, 185
66, 64, 143, 63
67, 180, 61, 62
68, 98, 298, 97
69, 144, 177, 1514
70, 176, 63, 143
71, 133, 184, 281
72, 62, 63, 176
73, 180, 279, 61
74, 137, 155, 130
75, 175, 143, 64
76, 49, 50, 136
77, 133, 151, 184
78, 58, 59, 178
79, 150, 76, 77
80, 230, 57, 58
81, 59, 229, 178
82, 1512, 147, 181
83, 284, 84, 322
84, 55, 191, 54
85, 47, 188, 46
86, 156, 52, 53
87, 190, 156, 53
88, 323, 85, 86
89, 56, 57, 231
90, 129, 184, 151
91, 177, 66, 228
92, 175, 951, 143
93, 155, 51, 52
94, 47, 48, 189
95, 58, 178, 230
96, 238, 154, 189
97, 173, 45, 225
98, 136, 137, 130
99, 849, 850, 851
100, 189, 188, 47
101, 1101, 1100, 1103
102, 173, 44, 45
103, 173, 226, 44
104, 337, 377, 1526
105, 137, 50, 51
106, 361, 367, 445
107, 1170, 1144, 1167
108, 227, 42, 43
109, 368, 446, 502
110, 40, 41, 221
111, 169, 39, 219
112, 208, 1589, 164
113, 175, 64, 65
114, 220, 38, 169
115, 68, 183, 278
116, 220, 37, 38
117, 50, 137, 136
118, 977, 131, 953
119, 38, 39, 169
120, 141, 169, 219
121, 226, 43, 44
122, 1378, 1382, 1384
123, 36, 37, 224
124, 238, 189, 48
125, 100, 296, 251
126, 159, 1087, 1132
127, 103, 253, 102
128, 977, 143, 131
129, 244, 103, 104
130, 177, 175, 65
131, 951, 144, 949
132, 196, 244, 104
133, 196, 105, 243
134, 142, 277, 367
135, 245, 106, 107
136, 225, 45, 46
137, 461, 462, 142
138, 196, 104, 105
139, 170, 221, 273
140, 107, 289, 245
141, 110, 111, 302
142, 1180, 1181, 1183
143, 301, 111, 112
144, 142, 225, 277
145, 210, 263, 1505
146, 113, 257, 112
147, 329, 115, 259
148, 273, 221, 41
149, 116, 259, 115
150, 219, 39, 40
151, 1346, 220, 141
152, 300, 257, 113
153, 142, 367, 461
154, 109, 290, 108
155, 1523, 222, 274
156, 116, 117, 255
157, 118, 201, 117
158, 1116, 1122, 1124
159, 118, 254, 201
160, 1218, 1222, 1209
161, 212, 265, 1423
162, 119, 120, 256
163, 33, 34, 222
164, 333, 242, 332
165, 123, 205, 261
166, 33, 222, 275
167, 868, 936, 736
168, 120, 299, 256
169, 194, 240, 1510
170, 124, 205, 123
171, 207, 303, 126
172, 208, 26, 27
173, 127, 207, 126
174, 762, 940, 761
175, 1518, 205, 260
176, 193, 127, 128
177, 128, 1, 158
178, 1134, 1137, 1011
179, 1, 192, 158
180, 205, 1518, 162
181, 196, 243, 160
182, 158, 193, 128
183, 161, 201, 254
184, 205, 124, 260
185, 1509, 209, 164
186, 117, 201, 255
187, 1521, 216, 270
188, 194, 2, 3
189, 152, 150, 77
190, 209, 24, 25
191, 74, 75, 151
192, 25, 26, 164
193, 149, 1513, 232
194, 209, 25, 164
195, 185, 78, 79
196, 21, 270, 216
197, 133, 149, 151
198, 218, 23, 24
199, 74, 151, 149
200, 308, 23, 218
201, 26, 208, 164
202, 150, 135, 320
203, 1516, 1534, 348
204, 32, 33, 275
205, 336, 148, 317
206, 274, 222, 34
207, 138, 156, 190
208, 20, 21, 216
209, 147, 1512, 132
210, 210, 28, 263
211, 181, 71, 72
212, 32, 276, 31
213, 317, 182, 132
214, 30, 264, 29
215, 210, 27, 28
216, 229, 145, 178
217, 1514, 177, 228
218, 309, 36, 224
219, 192, 1, 2
220, 9, 307, 8
221, 239, 191, 55
222, 192, 1132, 158
223, 229, 311, 1038
224, 20, 271, 19
225, 778, 412, 732
226, 241, 4, 5
227, 306, 268, 10
228, 287, 241, 5
229, 331, 12, 269
230, 7, 288, 6
231, 12, 13, 269
232, 1562, 139, 1066
233, 1336, 136, 130
234, 267, 16, 17
235, 88, 89, 294
236, 267, 17, 305
237, 89, 326, 294
238, 216, 271, 20
239, 190, 53, 54
240, 212, 266, 14
241, 156, 155, 52
242, 212, 14, 15
243, 155, 138, 1337
244, 15, 265, 212
245, 266, 13, 14
246, 382, 448, 447
247, 155, 156, 138
248, 10, 268, 9
249, 194, 3, 240
250, 150, 152, 135
251, 281, 339, 338
252, 253, 328, 102
253, 176, 977, 180
254, 315, 1512, 314
255, 1562, 158, 139
256, 193, 1562, 207
257, 240, 3, 4
258, 192, 194, 159
259, 9, 268, 307
260, 717, 829, 831
261, 243, 105, 106
262, 516, 160, 512
263, 112, 257, 301
264, 300, 346, 602
265, 526, 521, 523
266, 187, 236, 283
267, 603, 605, 533
268, 247, 291, 365
269, 421, 428, 418
270, 1527, 251, 296
271, 254, 118, 119
272, 718, 161, 690
273, 122, 262, 121
274, 585, 590, 583
275, 538, 528, 545
276, 245, 289, 524
277, 561, 547, 552
278, 300, 203, 257
279, 260, 124, 125
280, 803, 261, 162
281, 873, 798, 871
282, 256, 299, 800
283, 193, 207, 127
284, 207, 1520, 303
285, 210, 208, 27
286, 210, 1589, 208
287, 1509, 164, 140
288, 209, 1509, 218
289, 263, 28, 29
290, 210, 165, 1589
291, 304, 264, 30
292, 171, 222, 1523
293, 265, 15, 16
294, 1511, 266, 212
295, 19, 272, 18
296, 1306, 1256, 1126
297, 313, 468, 318
298, 287, 195, 241
299, 1031, 944, 1068
300, 1531, 268, 306
301, 270, 21, 22
302, 1432, 271, 167
303, 216, 1521, 167
304, 213, 267, 305
305, 209, 218, 24
306, 218, 1522, 308
307, 221, 219, 40
308, 219, 170, 1343
309, 141, 220, 169
310, 224, 220, 172
311, 41, 42, 273
312, 219, 221, 170
313, 274, 34, 35
314, 1507, 171, 1508
315, 673, 794, 735
316, 264, 304, 1499
317, 220, 224, 37
318, 224, 1524, 309
319, 46, 188, 225
320, 225, 188, 277
321, 462, 173, 142
322, 226, 462, 227
323, 226, 227, 43
324, 1338, 273, 174
325, 67, 68, 278
326, 1514, 228, 1517
327, 60, 61, 279
328, 229, 279, 311
329, 145, 230, 178
330, 231, 230, 179
331, 230, 231, 57
332, 1071, 239, 179
333, 1513, 149, 133
334, 72, 232, 181
335, 282, 184, 129
336, 461, 444, 462
337, 485, 484, 344
338, 341, 248, 325
339, 236, 235, 81
340, 235, 187, 398
341, 283, 82, 83
342, 235, 236, 187
343, 88, 294, 327
344, 385, 387, 386
345, 49, 136, 238
346, 238, 136, 286
347, 56, 231, 239
348, 179, 239, 231
349, 241, 240, 4
350, 240, 241, 1510
351, 287, 5, 6
352, 241, 195, 1510
353, 332, 7, 8
354, 638, 641, 720
355, 245, 243, 106
356, 243, 197, 520
357, 516, 196, 160
358, 244, 516, 253
359, 289, 107, 108
360, 243, 245, 197
361, 324, 290, 109
362, 341, 252, 352
363, 291, 94, 95
364, 456, 292, 198
365, 96, 97, 325
366, 251, 1527, 199
367, 356, 365, 353
368, 322, 237, 284
369, 359, 358, 353
370, 1535, 294, 326
371, 296, 100, 101
372, 354, 297, 199
373, 1527, 1528, 199
374, 248, 293, 325
375, 244, 253, 103
376, 253, 1529, 328
377, 256, 254, 119
378, 254, 202, 740
379, 718, 201, 161
380, 255, 718, 259
381, 299, 120, 121
382, 254, 256, 202
383, 300, 113, 114
384, 203, 601, 565
385, 615, 614, 611
386, 246, 290, 324
387, 255, 259, 116
388, 259, 1530, 329
389, 125, 126, 303
390, 1518, 260, 1520
391, 162, 261, 205
392, 262, 261, 206
393, 261, 262, 122
394, 800, 206, 799
395, 264, 263, 29
396, 1505, 1504, 165
397, 30, 31, 304
398, 264, 211, 1505
399, 267, 265, 16
400, 267, 1423, 265
401, 1511, 212, 166
402, 266, 1511, 269
403, 17, 18, 305
404, 267, 213, 1423
405, 306, 10, 11
406, 268, 214, 307
407, 266, 269, 13
408, 269, 1532, 331
409, 22, 23, 308
410, 1521, 270, 1522
411, 167, 271, 216
412, 272, 271, 217
413, 271, 272, 19
414, 305, 272, 1424
415, 42, 227, 273
416, 174, 273, 227
417, 35, 36, 309
418, 1523, 274, 1524
419, 171, 275, 222
420, 276, 275, 223
421, 275, 276, 32
422, 211, 1499, 1498
423, 154, 238, 286
424, 286, 1336, 502
425, 1517, 183, 148
426, 67, 278, 228
427, 146, 279, 180
428, 60, 279, 229
429, 1513, 281, 312
430, 280, 312, 314
431, 339, 321, 338
432, 312, 281, 233
433, 320, 282, 129
434, 321, 339, 234
435, 284, 283, 83
436, 283, 237, 515
437, 322, 84, 85
438, 283, 284, 237
439, 343, 86, 87
440, 508, 343, 344
441, 1157, 1335, 1337
442, 286, 446, 154
443, 288, 287, 6
444, 287, 242, 1136
445, 332, 8, 307
446, 287, 288, 242
447, 290, 289, 108
448, 246, 523, 524
449, 109, 110, 324
450, 289, 290, 246
451, 293, 291, 95
452, 248, 353, 365
453, 198, 292, 247
454, 295, 292, 250
455, 97, 298, 325
456, 291, 293, 248
457, 326, 89, 90
458, 294, 249, 327
459, 292, 295, 92
460, 250, 470, 342
461, 101, 102, 328
462, 1527, 296, 1529
463, 199, 297, 251
464, 298, 297, 252
465, 297, 298, 98
466, 252, 341, 325
467, 121, 262, 299
468, 299, 262, 206
469, 114, 115, 329
470, 329, 1530, 300
471, 565, 257, 203
472, 301, 565, 302
473, 301, 302, 111
474, 531, 324, 258
475, 1520, 207, 163
476, 125, 303, 260
477, 31, 276, 304
478, 223, 304, 276
479, 18, 272, 305
480, 1424, 272, 217
481, 11, 12, 331
482, 1531, 306, 1532
483, 307, 214, 1452
484, 288, 332, 242
485, 1522, 218, 168
486, 22, 308, 270
487, 1524, 224, 172
488, 35, 309, 274
489, 1512, 315, 132
490, 317, 148, 182
491, 905, 906, 453
492, 912, 316, 454
493, 314, 312, 369
494, 312, 280, 1513
495, 281, 338, 233
496, 911, 1516, 348
497, 369, 312, 233
498, 314, 313, 315
499, 318, 315, 313
500, 132, 315, 317
501, 340, 362, 233
502, 908, 913, 911
503, 318, 317, 315
504, 317, 318, 336
505, 313, 370, 468
506, 318, 316, 336
507, 362, 370, 369
508, 832, 1147, 1149
509, 150, 320, 129
510, 135, 337, 1526
511, 372, 371, 321
512, 338, 340, 233
513, 323, 322, 85
514, 322, 285, 509
515, 343, 87, 327
516, 322, 323, 285
517, 110, 302, 324
518, 258, 324, 302
519, 96, 325, 293
520, 298, 252, 325
521, 90, 91, 342
522, 342, 351, 1535
523, 327, 249, 486
524, 323, 343, 285
525, 1529, 253, 200
526, 101, 328, 296
527, 1530, 259, 204
528, 114, 329, 300
529, 672, 592, 684
530, 358, 360, 350
531, 1532, 269, 215
532, 11, 331, 306
533, 7, 332, 288
534, 333, 332, 307
535, 1531, 214, 268
536, 402, 393, 401
537, 1417, 1325, 1416
538, 678, 664, 716
539, 1194, 1179, 1188
540, 361, 1178, 1177
541, 1534, 316, 348
542, 1534, 1517, 148
543, 390, 377, 337
544, 376, 378, 372
545, 339, 281, 184
546, 340, 338, 321
547, 184, 282, 339
548, 234, 339, 282
549, 376, 377, 374
550, 353, 248, 341
551, 1536, 352, 354
552, 457, 356, 350
553, 250, 342, 295
554, 90, 342, 326
555, 86, 343, 323
556, 344, 343, 327
557, 1535, 249, 294
558, 377, 376, 234
559, 520, 519, 160
560, 416, 420, 459
561, 604, 625, 623
562, 360, 355, 415
563, 1257, 1253, 1254
564, 1448, 1449, 1359
565, 450, 452, 319
566, 450, 382, 467
567, 357, 421, 1536
568, 455, 250, 456
569, 358, 350, 353
570, 350, 360, 426
571, 356, 413, 198
572, 479, 471, 477
573, 354, 352, 252
574, 349, 355, 359
575, 358, 359, 355
576, 356, 353, 350
577, 297, 354, 252
578, 199, 357, 1536
579, 420, 349, 421
580, 388, 379, 386
581, 364, 457, 414
582, 356, 198, 365
583, 424, 421, 357
584, 428, 424, 497
585, 359, 353, 341
586, 360, 358, 355
587, 341, 352, 359
588, 349, 359, 352
589, 355, 416, 415
590, 371, 340, 321
591, 446, 466, 464
592, 381, 401, 373
593, 340, 371, 375
594, 370, 362, 448
595, 378, 374, 384
596, 375, 382, 447
597, 419, 423, 426
598, 455, 472, 471
599, 247, 365, 198
600, 291, 248, 365
601, 694, 437, 695
602, 440, 562, 564
603, 463, 464, 466
604, 1180, 461, 361
605, 858, 852, 856
606, 373, 401, 403
607, 314, 369, 313
608, 233, 362, 369
609, 319, 454, 468
610, 369, 370, 313
611, 372, 321, 234
612, 381, 375, 371
613, 376, 372, 234
614, 363, 371, 372
615, 378, 380, 363
616, 319, 448, 450
617, 509, 488, 494
618, 386, 379, 384
619, 381, 371, 363
620, 375, 373, 382
621, 234, 1526, 377
622, 378, 376, 374
623, 391, 397, 390
624, 397, 383, 390
625, 378, 384, 380
626, 372, 378, 363
627, 390, 392, 377
628, 379, 404, 394
629, 402, 380, 394
630, 375, 381, 373
631, 380, 402, 363
632, 394, 380, 379
633, 403, 947, 467
634, 370, 448, 319
635, 397, 399, 383
636, 386, 374, 385
637, 377, 392, 374
638, 379, 380, 384
639, 392, 400, 385
640, 405, 407, 395
641, 374, 386, 384
642, 383, 399, 400
643, 434, 414, 423
644, 386, 387, 388
645, 394, 404, 389
646, 506, 507, 1178
647, 388, 387, 405
648, 780, 779, 395
649, 391, 390, 337
650, 392, 390, 383
651, 135, 391, 337
652, 391, 153, 397
653, 400, 392, 383
654, 392, 385, 374
655, 395, 409, 411
656, 950, 131, 951
657, 404, 379, 388
658, 402, 401, 381
659, 493, 496, 1538
660, 407, 409, 395
661, 391, 135, 396
662, 135, 185, 396
663, 153, 398, 397
664, 397, 398, 399
665, 235, 398, 153
666, 187, 514, 398
667, 494, 510, 237
668, 400, 1537, 385
669, 510, 513, 514
670, 488, 285, 508
671, 402, 381, 363
672, 403, 401, 393
673, 394, 389, 402
674, 393, 402, 389
675, 667, 654, 668
676, 453, 911, 912
677, 405, 404, 388
678, 779, 412, 778
679, 1539, 1541, 387
680, 405, 395, 779
681, 473, 414, 434
682, 364, 413, 457
683, 1541, 405, 387
684, 406, 700, 409
685, 439, 438, 429
686, 576, 564, 573
687, 406, 409, 407
688, 408, 676, 411
689, 417, 443, 431
690, 504, 506, 368
691, 408, 411, 409
692, 410, 682, 780
693, 584, 597, 598
694, 683, 772, 732
695, 455, 413, 364
696, 456, 413, 455
697, 360, 415, 419
698, 426, 423, 414
699, 416, 355, 349
700, 422, 419, 415
701, 420, 416, 349
702, 366, 415, 416
703, 419, 422, 417
704, 479, 351, 471
705, 420, 421, 418
706, 500, 428, 497
707, 422, 415, 366
708, 419, 417, 423
709, 349, 1536, 421
710, 459, 418, 432
711, 424, 357, 1528
712, 200, 498, 511
713, 432, 429, 366
714, 429, 422, 366
715, 438, 417, 422
716, 434, 431, 435
717, 200, 512, 498
718, 421, 424, 428
719, 562, 560, 553
720, 431, 443, 427
721, 350, 426, 414
722, 419, 426, 360
723, 492, 482, 703
724, 423, 417, 431
725, 498, 497, 424
726, 518, 517, 536
727, 366, 459, 432
728, 429, 425, 439
729, 430, 435, 436
730, 470, 455, 471
731, 433, 443, 438
732, 435, 431, 427
733, 460, 418, 428
734, 429, 432, 1544
735, 433, 439, 441
736, 578, 620, 442
737, 431, 434, 423
738, 434, 430, 473
739, 435, 427, 767
740, 434, 435, 430
741, 704, 707, 670
742, 481, 483, 478
743, 695, 441, 617
744, 693, 643, 694
745, 429, 438, 422
746, 443, 433, 437
747, 599, 441, 439
748, 438, 439, 433
749, 432, 418, 460
750, 580, 574, 577
751, 599, 439, 425
752, 441, 440, 617
753, 568, 575, 553
754, 578, 574, 621
755, 438, 443, 417
756, 427, 443, 437
757, 505, 1171, 1172
758, 462, 1296, 174
759, 277, 463, 367
760, 368, 506, 1178
761, 1336, 1335, 465
762, 466, 446, 368
763, 362, 340, 447
764, 375, 447, 340
765, 447, 448, 362
766, 382, 373, 467
767, 502, 504, 368
768, 451, 452, 450
769, 382, 450, 448
770, 450, 449, 451
771, 947, 777, 902
772, 1271, 1273, 1140
773, 451, 905, 452
774, 468, 316, 318
775, 855, 777, 901
776, 453, 906, 908
777, 319, 452, 454
778, 912, 452, 453
779, 474, 472, 473
780, 342, 470, 351
781, 292, 456, 250
782, 198, 413, 456
783, 356, 457, 413
784, 350, 414, 457
785, 520, 522, 517
786, 500, 551, 460
787, 416, 459, 366
788, 420, 418, 459
789, 460, 428, 500
790, 432, 460, 501
791, 361, 461, 367
792, 444, 1296, 462
793, 227, 462, 174
794, 173, 462, 226
795, 464, 463, 277
796, 445, 367, 463
797, 188, 464, 277
798, 446, 464, 154
799, 1140, 1156, 1090
800, 984, 985, 957
801, 368, 445, 466
802, 466, 445, 463
803, 403, 467, 373
804, 450, 467, 449
805, 319, 468, 370
806, 316, 468, 454
807, 469, 472, 474
808, 477, 469, 478
809, 250, 455, 470
810, 364, 472, 455
811, 471, 469, 477
812, 351, 470, 471
813, 473, 472, 364
814, 469, 471, 472
815, 473, 364, 414
816, 473, 430, 474
817, 436, 1543, 430
818, 1543, 476, 478
819, 474, 1543, 469
820, 475, 485, 486
821, 1590, 490, 492
822, 483, 475, 478
823, 469, 1543, 478
824, 477, 475, 479
825, 481, 478, 476
826, 475, 477, 478
827, 486, 479, 475
828, 1535, 479, 249
829, 480, 481, 482
830, 480, 489, 484
831, 481, 476, 727
832, 481, 480, 483
833, 705, 727, 436
834, 704, 670, 655
835, 484, 483, 480
836, 485, 483, 484
837, 480, 490, 489
838, 344, 484, 488
839, 486, 485, 344
840, 475, 483, 485
841, 327, 486, 344
842, 486, 249, 479
843, 1539, 387, 1537
844, 487, 495, 491
845, 491, 484, 489
846, 484, 491, 488
847, 490, 480, 482
848, 489, 487, 491
849, 492, 490, 482
850, 487, 489, 490
851, 496, 493, 495
852, 488, 491, 494
853, 705, 703, 482
854, 1541, 1540, 406
855, 513, 400, 399
856, 494, 237, 509
857, 495, 494, 491
858, 510, 494, 493
859, 495, 487, 1542
860, 494, 495, 493
861, 1540, 1542, 1590
862, 1537, 387, 385
863, 424, 511, 498
864, 500, 497, 542
865, 200, 516, 512
866, 497, 498, 518
867, 530, 517, 534
868, 537, 542, 536
869, 542, 497, 458
870, 500, 499, 551
871, 539, 542, 537
872, 562, 600, 560
873, 286, 502, 446
874, 1572, 504, 502
875, 772, 712, 733
876, 622, 647, 652
877, 1572, 502, 465
878, 1292, 506, 503
879, 825, 815, 786
880, 1547, 594, 596
881, 503, 506, 504
882, 505, 507, 506
883, 794, 673, 826
884, 1174, 1175, 1177
885, 343, 508, 285
886, 344, 488, 508
887, 322, 509, 237
888, 488, 509, 285
889, 513, 510, 493
890, 515, 510, 514
891, 1528, 511, 424
892, 511, 345, 1529
893, 519, 512, 160
894, 497, 518, 458
895, 513, 493, 1538
896, 514, 513, 399
897, 398, 514, 399
898, 514, 187, 515
899, 283, 515, 187
900, 237, 510, 515
901, 253, 516, 200
902, 516, 244, 196
903, 521, 522, 523
904, 526, 523, 527
905, 498, 512, 518
906, 518, 512, 519
907, 160, 243, 520
908, 518, 519, 517
909, 522, 520, 197
910, 517, 519, 520
911, 606, 527, 532
912, 530, 534, 529
913, 523, 522, 197
914, 522, 521, 534
915, 524, 523, 197
916, 526, 527, 525
917, 245, 524, 197
918, 246, 524, 289
919, 611, 554, 612
920, 526, 529, 521
921, 527, 523, 246
922, 1545, 529, 526
923, 246, 531, 527
924, 527, 531, 532
925, 545, 546, 540
926, 539, 544, 499
927, 1545, 526, 525
928, 529, 528, 530
929, 538, 537, 530
930, 518, 536, 458
931, 324, 531, 246
932, 532, 531, 258
933, 533, 258, 565
934, 532, 258, 533
935, 601, 602, 566
936, 603, 533, 601
937, 522, 534, 517
938, 529, 534, 521
939, 545, 528, 546
940, 501, 551, 550
941, 517, 530, 536
942, 537, 536, 530
943, 538, 530, 528
944, 539, 537, 535
945, 538, 545, 543
946, 535, 537, 538
947, 549, 544, 539
948, 542, 539, 499
949, 558, 559, 556
950, 560, 501, 550
951, 538, 543, 535
952, 548, 541, 549
953, 500, 542, 499
954, 542, 458, 536
955, 552, 543, 540
956, 535, 543, 548
957, 549, 539, 535
958, 550, 544, 541
959, 529, 1545, 528
960, 540, 543, 545
961, 532, 605, 606
962, 565, 601, 533
963, 546, 609, 610
964, 589, 621, 586
965, 555, 543, 552
966, 543, 555, 548
967, 548, 549, 535
968, 541, 544, 549
969, 560, 550, 570
970, 551, 501, 460
971, 499, 544, 551
972, 550, 551, 544
973, 610, 612, 540
974, 552, 547, 555
975, 555, 558, 557
976, 557, 568, 570
977, 628, 613, 623
978, 614, 633, 635
979, 558, 555, 547
980, 557, 548, 555
981, 563, 1546, 561
982, 573, 575, 571
983, 568, 557, 556
984, 541, 548, 557
985, 558, 547, 1546
986, 557, 558, 556
987, 563, 765, 1546
988, 1053, 1057, 975
989, 570, 550, 541
990, 564, 562, 553
991, 612, 552, 540
992, 561, 554, 563
993, 599, 440, 441
994, 562, 599, 600
995, 611, 614, 554
996, 639, 635, 642
997, 556, 572, 571
998, 576, 618, 564
999, 302, 565, 258
1000, 565, 301, 257
1001, 346, 629, 627
1002, 525, 606, 607
1003, 605, 1548, 567
1004, 546, 607, 609
1005, 568, 556, 571
1006, 570, 568, 553
1007, 1591, 581, 582
1008, 578, 617, 618
1009, 560, 570, 553
1010, 557, 570, 541
1011, 572, 556, 559
1012, 573, 571, 569
1013, 582, 572, 619
1014, 569, 571, 572
1015, 577, 576, 573
1016, 564, 553, 575
1017, 577, 581, 580
1018, 617, 578, 442
1019, 571, 575, 568
1020, 564, 575, 573
1021, 577, 573, 569
1022, 574, 578, 576
1023, 582, 581, 569
1024, 574, 576, 577
1025, 574, 580, 586
1026, 620, 578, 589
1027, 678, 688, 673
1028, 577, 569, 581
1029, 585, 580, 579
1030, 586, 585, 588
1031, 582, 569, 572
1032, 580, 581, 579
1033, 764, 572, 559
1034, 579, 581, 1591
1035, 1549, 1591, 619
1036, 667, 669, 650
1037, 584, 588, 593
1038, 707, 768, 1554
1039, 1592, 590, 585
1040, 588, 585, 583
1041, 585, 586, 580
1042, 586, 584, 589
1043, 614, 635, 639
1044, 716, 672, 686
1045, 1547, 593, 588
1046, 586, 588, 584
1047, 593, 597, 584
1048, 584, 598, 589
1049, 1592, 585, 579
1050, 1552, 594, 590
1051, 583, 590, 594
1052, 645, 649, 656
1053, 691, 722, 720
1054, 1547, 596, 591
1055, 1547, 588, 583
1056, 591, 651, 597
1057, 1552, 590, 587
1058, 594, 592, 596
1059, 647, 649, 645
1060, 676, 697, 1553
1061, 651, 661, 663
1062, 683, 682, 711
1063, 591, 597, 593
1064, 597, 595, 598
1065, 644, 647, 622
1066, 648, 696, 598
1067, 600, 599, 425
1068, 440, 599, 562
1069, 1544, 600, 425
1070, 560, 600, 501
1071, 602, 601, 203
1072, 603, 601, 566
1073, 300, 602, 203
1074, 602, 346, 627
1075, 1548, 566, 604
1076, 533, 605, 532
1077, 627, 624, 625
1078, 630, 625, 624
1079, 1548, 605, 603
1080, 606, 525, 527
1081, 605, 567, 606
1082, 607, 546, 1545
1083, 606, 567, 607
1084, 609, 567, 608
1085, 567, 1548, 616
1086, 554, 561, 612
1087, 567, 609, 607
1088, 610, 609, 608
1089, 610, 608, 611
1090, 546, 610, 540
1091, 615, 616, 613
1092, 611, 608, 615
1093, 612, 561, 552
1094, 611, 612, 610
1095, 613, 616, 623
1096, 744, 741, 743
1097, 628, 632, 613
1098, 632, 633, 613
1099, 616, 615, 608
1100, 614, 615, 613
1101, 567, 616, 608
1102, 616, 604, 623
1103, 617, 442, 695
1104, 440, 564, 618
1105, 578, 618, 576
1106, 440, 618, 617
1107, 722, 765, 638
1108, 636, 635, 633
1109, 648, 598, 644
1110, 442, 620, 693
1111, 586, 621, 574
1112, 589, 578, 621
1113, 707, 643, 1551
1114, 598, 595, 644
1115, 604, 627, 625
1116, 630, 797, 626
1117, 690, 629, 204
1118, 739, 690, 161
1119, 627, 604, 566
1120, 630, 628, 623
1121, 804, 806, 802
1122, 992, 973, 993
1123, 602, 627, 566
1124, 346, 1530, 629
1125, 630, 623, 625
1126, 840, 626, 839
1127, 204, 718, 690
1128, 624, 627, 629
1129, 719, 741, 739
1130, 626, 628, 630
1131, 724, 725, 637
1132, 636, 631, 724
1133, 840, 628, 626
1134, 633, 632, 631
1135, 633, 631, 636
1136, 613, 633, 614
1137, 725, 724, 631
1138, 685, 677, 684
1139, 640, 635, 634
1140, 614, 639, 554
1141, 636, 724, 723
1142, 635, 636, 634
1143, 762, 755, 760
1144, 897, 1020, 896
1145, 640, 641, 638
1146, 559, 765, 764
1147, 635, 640, 642
1148, 563, 554, 639
1149, 641, 640, 634
1150, 640, 638, 642
1151, 723, 692, 634
1152, 634, 692, 641
1153, 638, 563, 642
1154, 563, 639, 642
1155, 589, 696, 620
1156, 660, 622, 652
1157, 649, 647, 644
1158, 648, 644, 1550
1159, 656, 651, 663
1160, 645, 657, 668
1161, 660, 670, 1550
1162, 646, 1551, 693
1163, 649, 644, 595
1164, 654, 652, 647
1165, 1550, 644, 622
1166, 696, 646, 620
1167, 651, 595, 597
1168, 649, 595, 651
1169, 654, 650, 652
1170, 669, 410, 676
1171, 591, 662, 661
1172, 591, 661, 651
1173, 654, 647, 645
1174, 1553, 660, 652
1175, 662, 671, 666
1176, 679, 680, 769
1177, 645, 656, 657
1178, 650, 654, 667
1179, 699, 697, 408
1180, 1551, 1550, 670
1181, 651, 656, 649
1182, 657, 656, 653
1183, 653, 663, 665
1184, 659, 681, 711
1185, 596, 671, 662
1186, 662, 666, 658
1187, 668, 679, 709
1188, 410, 669, 675
1189, 1553, 652, 650
1190, 660, 655, 670
1191, 662, 591, 596
1192, 663, 661, 658
1193, 672, 671, 596
1194, 658, 661, 662
1195, 665, 663, 658
1196, 663, 653, 656
1197, 671, 672, 664
1198, 708, 653, 665
1199, 678, 687, 689
1200, 713, 730, 731
1201, 678, 666, 664
1202, 658, 666, 689
1203, 654, 645, 668
1204, 669, 667, 659
1205, 679, 668, 657
1206, 659, 667, 668
1207, 675, 669, 659
1208, 411, 676, 410
1209, 697, 701, 655
1210, 693, 1551, 643
1211, 672, 596, 592
1212, 664, 666, 671
1213, 592, 685, 684
1214, 930, 831, 829
1215, 684, 686, 672
1216, 393, 773, 775
1217, 653, 708, 729
1218, 665, 658, 689
1219, 681, 659, 709
1220, 675, 711, 682
1221, 697, 676, 408
1222, 650, 669, 676
1223, 888, 845, 886
1224, 808, 759, 748
1225, 664, 672, 716
1226, 678, 673, 687
1227, 679, 657, 729
1228, 679, 674, 709
1229, 731, 769, 770
1230, 403, 776, 777
1231, 772, 733, 714
1232, 683, 412, 682
1233, 682, 412, 780
1234, 410, 675, 682
1235, 711, 712, 683
1236, 732, 412, 683
1237, 594, 1552, 592
1238, 677, 838, 684
1239, 721, 756, 691
1240, 720, 721, 691
1241, 747, 745, 746
1242, 832, 837, 1147
1243, 735, 687, 673
1244, 782, 734, 781
1245, 737, 686, 795
1246, 938, 1399, 1401
1247, 678, 689, 666
1248, 665, 689, 687
1249, 739, 740, 719
1250, 629, 690, 744
1251, 692, 745, 641
1252, 1593, 1594, 1595
1253, 807, 637, 874
1254, 747, 753, 751
1255, 646, 693, 620
1256, 643, 1554, 694
1257, 695, 437, 433
1258, 442, 693, 694
1259, 441, 695, 433
1260, 442, 694, 695
1261, 598, 696, 589
1262, 646, 696, 648
1263, 698, 699, 700
1264, 655, 660, 1553
1265, 492, 703, 702
1266, 699, 701, 697
1267, 700, 699, 408
1268, 699, 698, 701
1269, 409, 700, 408
1270, 406, 492, 702
1271, 698, 702, 703
1272, 655, 701, 704
1273, 698, 700, 702
1274, 406, 702, 700
1275, 482, 727, 705
1276, 698, 703, 706
1277, 701, 698, 706
1278, 768, 728, 766
1279, 768, 766, 767
1280, 706, 704, 701
1281, 703, 705, 706
1282, 706, 705, 728
1283, 704, 706, 728
1284, 427, 1554, 768
1285, 783, 735, 715
1286, 729, 708, 680
1287, 709, 659, 668
1288, 730, 709, 674
1289, 782, 781, 708
1290, 849, 851, 813
1291, 659, 711, 675
1292, 712, 711, 681
1293, 713, 712, 681
1294, 389, 732, 773
1295, 681, 730, 713
1296, 731, 674, 769
1297, 733, 712, 713
1298, 811, 714, 733
1299, 796, 827, 737
1300, 771, 820, 1555
1301, 686, 688, 716
1302, 678, 716, 688
1303, 1127, 837, 1069
1304, 688, 686, 737
1305, 259, 718, 204
1306, 718, 255, 201
1307, 742, 719, 740
1308, 966, 1559, 805
1309, 721, 720, 641
1310, 691, 1593, 722
1311, 692, 807, 746
1312, 751, 756, 721
1313, 764, 722, 619
1314, 638, 720, 722
1315, 636, 723, 634
1316, 637, 692, 723
1317, 840, 632, 628
1318, 637, 723, 724
1319, 626, 797, 798
1320, 719, 742, 842
1321, 737, 829, 717
1322, 746, 745, 692
1323, 481, 727, 482
1324, 727, 476, 1543
1325, 766, 728, 705
1326, 704, 728, 707
1327, 679, 729, 680
1328, 653, 729, 657
1329, 709, 730, 681
1330, 731, 730, 674
1331, 781, 680, 708
1332, 713, 731, 1555
1333, 773, 732, 714
1334, 778, 732, 389
1335, 713, 710, 733
1336, 393, 775, 776
1337, 734, 784, 786
1338, 781, 770, 680
1339, 688, 826, 673
1340, 715, 784, 783
1341, 835, 717, 831
1342, 790, 785, 787
1343, 795, 686, 838
1344, 796, 737, 717
1345, 743, 630, 624
1346, 839, 798, 725
1347, 740, 739, 161
1348, 719, 872, 741
1349, 254, 740, 161
1350, 740, 202, 742
1351, 743, 741, 738
1352, 690, 739, 741
1353, 202, 799, 742
1354, 206, 802, 799
1355, 743, 738, 797
1356, 744, 743, 624
1357, 629, 744, 624
1358, 741, 744, 690
1359, 637, 807, 692
1360, 721, 641, 745
1361, 750, 747, 746
1362, 721, 745, 747
1363, 752, 750, 746
1364, 751, 721, 747
1365, 757, 759, 808
1366, 1145, 1081, 1058
1367, 885, 846, 809
1368, 935, 1595, 1596
1369, 746, 844, 752
1370, 753, 750, 748
1371, 753, 747, 750
1372, 756, 751, 1561
1373, 757, 752, 726
1374, 750, 752, 808
1375, 884, 749, 753
1376, 751, 753, 749
1377, 889, 1561, 888
1378, 1594, 754, 1595
1379, 760, 755, 757
1380, 755, 1019, 810
1381, 1561, 751, 749
1382, 756, 754, 1594
1383, 879, 760, 757
1384, 757, 755, 759
1385, 874, 876, 807
1386, 970, 991, 881
1387, 762, 1018, 1019
1388, 748, 759, 846
1389, 879, 757, 726
1390, 940, 762, 760
1391, 878, 882, 758
1392, 999, 1009, 1000
1393, 940, 760, 758
1394, 762, 761, 1018
1395, 993, 883, 992
1396, 946, 899, 900
1397, 572, 764, 619
1398, 559, 1546, 765
1399, 638, 765, 563
1400, 722, 764, 765
1401, 705, 436, 766
1402, 767, 766, 436
1403, 435, 767, 436
1404, 768, 767, 427
1405, 1554, 427, 437
1406, 728, 768, 707
1407, 679, 769, 674
1408, 770, 769, 680
1409, 734, 783, 784
1410, 770, 771, 1555
1411, 786, 784, 825
1412, 793, 821, 785
1413, 712, 772, 683
1414, 714, 732, 772
1415, 775, 714, 774
1416, 389, 773, 393
1417, 811, 774, 714
1418, 902, 777, 855
1419, 714, 775, 773
1420, 776, 775, 774
1421, 776, 774, 1560
1422, 393, 776, 403
1423, 774, 811, 848
1424, 786, 815, 771
1425, 389, 404, 778
1426, 395, 411, 780
1427, 778, 404, 779
1428, 405, 779, 404
1429, 780, 411, 410
1430, 412, 779, 780
1431, 782, 708, 665
1432, 770, 781, 734
1433, 687, 814, 665
1434, 735, 814, 687
1435, 734, 782, 783
1436, 783, 782, 814
1437, 828, 715, 735
1438, 734, 786, 770
1439, 1560, 813, 901
1440, 784, 715, 787
1441, 787, 789, 825
1442, 771, 770, 786
1443, 715, 828, 790
1444, 787, 785, 789
1445, 796, 937, 936
1446, 785, 790, 792
1447, 792, 793, 785
1448, 789, 818, 815
1449, 715, 790, 787
1450, 788, 1577, 792
1451, 938, 1558, 936
1452, 980, 863, 865
1453, 788, 792, 790
1454, 793, 792, 791
1455, 955, 980, 1039
1456, 914, 924, 926
1457, 736, 1556, 794
1458, 788, 790, 828
1459, 889, 1596, 1561
1460, 885, 748, 846
1461, 936, 937, 870
1462, 794, 826, 868
1463, 743, 797, 630
1464, 798, 797, 738
1465, 871, 872, 841
1466, 806, 742, 799
1467, 800, 799, 202
1468, 1559, 802, 803
1469, 256, 800, 202
1470, 206, 800, 299
1471, 1518, 1519, 162
1472, 738, 871, 798
1473, 803, 802, 206
1474, 802, 801, 804
1475, 261, 803, 206
1476, 162, 805, 1559
1477, 881, 882, 880
1478, 841, 872, 842
1479, 969, 964, 966
1480, 758, 882, 883
1481, 802, 806, 799
1482, 842, 806, 804
1483, 877, 725, 798
1484, 844, 807, 876
1485, 750, 808, 748
1486, 757, 808, 752
1487, 755, 810, 759
1488, 832, 836, 837
1489, 895, 810, 763
1490, 894, 846, 759
1491, 710, 812, 733
1492, 811, 733, 812
1493, 815, 819, 771
1494, 811, 812, 848
1495, 820, 771, 819
1496, 849, 866, 824
1497, 783, 814, 735
1498, 665, 814, 782
1499, 821, 816, 818
1500, 819, 818, 822
1501, 980, 1042, 863
1502, 812, 849, 848
1503, 823, 867, 822
1504, 820, 710, 1555
1505, 821, 818, 789
1506, 822, 818, 816
1507, 818, 819, 815
1508, 819, 817, 820
1509, 866, 817, 824
1510, 710, 820, 866
1511, 785, 821, 789
1512, 821, 793, 862
1513, 823, 822, 816
1514, 819, 822, 817
1515, 821, 862, 816
1516, 852, 858, 860
1517, 817, 867, 824
1518, 813, 848, 849
1519, 787, 825, 784
1520, 815, 825, 789
1521, 688, 827, 826
1522, 868, 796, 936
1523, 737, 827, 688
1524, 868, 827, 796
1525, 735, 794, 828
1526, 828, 794, 1556
1527, 737, 795, 829
1528, 795, 838, 928
1529, 830, 833, 831
1530, 930, 829, 795
1531, 833, 836, 832
1532, 833, 835, 831
1533, 894, 809, 846
1534, 1057, 1054, 1059
1535, 959, 989, 931
1536, 833, 832, 835
1537, 930, 795, 928
1538, 892, 942, 891
1539, 1082, 1069, 1563
1540, 938, 1401, 1557
1541, 989, 833, 830
1542, 837, 836, 834
1543, 974, 892, 893
1544, 900, 893, 946
1545, 684, 838, 686
1546, 928, 838, 677
1547, 840, 725, 631
1548, 626, 798, 839
1549, 725, 840, 839
1550, 631, 632, 840
1551, 967, 963, 965
1552, 878, 758, 879
1553, 806, 842, 742
1554, 842, 804, 962
1555, 798, 873, 877
1556, 878, 879, 876
1557, 752, 844, 726
1558, 746, 807, 844
1559, 887, 845, 885
1560, 830, 930, 931
1561, 894, 759, 810
1562, 809, 887, 885
1563, 847, 895, 897
1564, 1378, 1371, 1376
1565, 812, 866, 849
1566, 774, 848, 813
1567, 850, 824, 867
1568, 824, 850, 849
1569, 853, 856, 852
1570, 901, 853, 855
1571, 851, 850, 853
1572, 813, 851, 901
1573, 1047, 1044, 1043
1574, 855, 852, 861
1575, 850, 1045, 856
1576, 853, 852, 855
1577, 864, 816, 862
1578, 978, 979, 311
1579, 852, 860, 861
1580, 449, 947, 902
1581, 850, 856, 853
1582, 854, 1290, 858
1583, 1042, 980, 1040
1584, 976, 915, 920
1585, 854, 858, 856
1586, 857, 909, 860
1587, 918, 919, 916
1588, 948, 903, 451
1589, 857, 860, 858
1590, 860, 859, 861
1591, 903, 861, 859
1592, 948, 449, 902
1593, 865, 863, 864
1594, 864, 823, 816
1595, 862, 793, 1091
1596, 922, 914, 917
1597, 865, 864, 862
1598, 864, 863, 1044
1599, 1093, 1091, 1092
1600, 1041, 955, 1098
1601, 710, 866, 812
1602, 817, 866, 820
1603, 822, 867, 817
1604, 867, 823, 1046
1605, 794, 868, 736
1606, 827, 868, 826
1607, 929, 677, 685
1608, 933, 931, 869
1609, 975, 1061, 1078
1610, 1100, 1095, 1016
1611, 872, 871, 738
1612, 873, 871, 841
1613, 741, 872, 738
1614, 872, 719, 842
1615, 841, 962, 961
1616, 877, 875, 725
1617, 875, 637, 725
1618, 876, 874, 843
1619, 843, 874, 875
1620, 637, 875, 874
1621, 876, 843, 878
1622, 876, 726, 844
1623, 877, 873, 880
1624, 843, 875, 877
1625, 880, 843, 877
1626, 843, 880, 878
1627, 760, 879, 758
1628, 726, 876, 879
1629, 961, 873, 841
1630, 873, 961, 880
1631, 968, 969, 966
1632, 968, 966, 805
1633, 880, 882, 878
1634, 882, 881, 883
1635, 963, 967, 939
1636, 763, 1018, 997
1637, 885, 753, 748
1638, 959, 931, 960
1639, 845, 884, 885
1640, 885, 884, 753
1641, 928, 929, 869
1642, 749, 884, 888
1643, 892, 887, 809
1644, 887, 892, 891
1645, 845, 888, 884
1646, 888, 886, 889
1647, 933, 932, 886
1648, 889, 934, 935
1649, 894, 945, 809
1650, 942, 943, 834
1651, 836, 833, 989
1652, 845, 887, 891
1653, 893, 892, 809
1654, 892, 890, 942
1655, 847, 897, 899
1656, 944, 974, 900
1657, 895, 894, 810
1658, 945, 847, 946
1659, 763, 1020, 897
1660, 895, 847, 945
1661, 761, 883, 993
1662, 898, 1053, 1014
1663, 763, 897, 895
1664, 896, 1050, 899
1665, 896, 1020, 1021
1666, 1055, 1057, 1053
1667, 896, 899, 897
1668, 899, 898, 900
1669, 974, 1089, 943
1670, 974, 943, 890
1671, 901, 777, 1560
1672, 853, 901, 851
1673, 855, 861, 902
1674, 948, 902, 861
1675, 859, 907, 906
1676, 452, 905, 453
1677, 907, 904, 906
1678, 913, 1516, 911
1679, 451, 903, 905
1680, 906, 905, 903
1681, 859, 906, 903
1682, 906, 904, 908
1683, 909, 859, 860
1684, 907, 859, 909
1685, 908, 904, 915
1686, 912, 911, 348
1687, 917, 909, 857
1688, 918, 907, 919
1689, 907, 918, 904
1690, 949, 144, 1515
1691, 453, 908, 911
1692, 908, 915, 913
1693, 316, 912, 348
1694, 452, 912, 454
1695, 949, 913, 910
1696, 1515, 144, 1514
1697, 1291, 1290, 854
1698, 1015, 1032, 1038
1699, 904, 918, 920
1700, 913, 915, 910
1701, 927, 956, 926
1702, 915, 904, 920
1703, 857, 1290, 922
1704, 956, 919, 917
1705, 919, 907, 909
1706, 916, 988, 918
1707, 909, 917, 919
1708, 956, 917, 914
1709, 927, 958, 988
1710, 976, 950, 910
1711, 1287, 1288, 1041
1712, 914, 922, 924
1713, 857, 922, 917
1714, 921, 1286, 924
1715, 1017, 1041, 1288
1716, 1034, 1033, 179
1717, 921, 924, 922
1718, 923, 1268, 926
1719, 1108, 1159, 1096
1720, 927, 916, 956
1721, 923, 926, 924
1722, 926, 925, 927
1723, 981, 927, 925
1724, 987, 983, 979
1725, 929, 928, 677
1726, 930, 928, 869
1727, 934, 685, 935
1728, 934, 886, 932
1729, 931, 930, 869
1730, 930, 830, 831
1731, 869, 932, 933
1732, 959, 891, 942
1733, 869, 929, 932
1734, 934, 932, 929
1735, 845, 960, 886
1736, 891, 960, 845
1737, 685, 934, 929
1738, 886, 934, 889
1739, 1597, 685, 1552
1740, 1595, 1597, 1598
1741, 937, 796, 717
1742, 938, 936, 870
1743, 717, 835, 937
1744, 1327, 835, 1326
1745, 1115, 1102, 1109
1746, 1565, 1106, 1110
1747, 962, 804, 963
1748, 880, 939, 971
1749, 758, 883, 940
1750, 761, 940, 883
1751, 941, 969, 972
1752, 1000, 996, 998
1753, 943, 942, 890
1754, 959, 942, 834
1755, 892, 974, 890
1756, 834, 943, 837
1757, 898, 1014, 900
1758, 1031, 1068, 1014
1759, 809, 945, 893
1760, 895, 945, 894
1761, 945, 946, 893
1762, 899, 946, 847
1763, 467, 947, 449
1764, 777, 947, 403
1765, 903, 948, 861
1766, 449, 948, 451
1767, 950, 949, 910
1768, 949, 950, 951
1769, 950, 976, 952
1770, 950, 952, 953
1771, 143, 951, 131
1772, 175, 144, 951
1773, 988, 920, 918
1774, 950, 953, 131
1775, 954, 953, 952
1776, 977, 953, 146
1777, 952, 976, 986
1778, 279, 978, 311
1779, 1072, 1016, 1039
1780, 1096, 1141, 1108
1781, 919, 956, 916
1782, 926, 956, 914
1783, 981, 984, 957
1784, 979, 1015, 311
1785, 927, 981, 983
1786, 986, 987, 952
1787, 989, 834, 836
1788, 960, 931, 933
1789, 959, 960, 891
1790, 886, 960, 933
1791, 841, 842, 962
1792, 880, 961, 939
1793, 963, 804, 801
1794, 939, 961, 962
1795, 965, 963, 801
1796, 939, 962, 963
1797, 965, 801, 966
1798, 881, 971, 970
1799, 801, 1559, 966
1800, 965, 964, 967
1801, 1519, 968, 805
1802, 964, 965, 966
1803, 970, 967, 964
1804, 971, 967, 970
1805, 1013, 1027, 163
1806, 968, 1026, 972
1807, 972, 969, 968
1808, 990, 969, 941
1809, 964, 990, 970
1810, 881, 991, 883
1811, 880, 971, 881
1812, 939, 967, 971
1813, 1027, 1026, 968
1814, 1002, 1030, 1005
1815, 992, 995, 973
1816, 1004, 1007, 1005
1817, 900, 974, 893
1818, 974, 944, 1089
1819, 1052, 898, 1050
1820, 1223, 1230, 1215
1821, 915, 976, 910
1822, 986, 976, 920
1823, 180, 977, 146
1824, 977, 176, 143
1825, 146, 954, 978
1826, 979, 978, 954
1827, 954, 952, 987
1828, 979, 957, 1015
1829, 1072, 1039, 980
1830, 1040, 980, 955
1831, 925, 1267, 984
1832, 983, 981, 957
1833, 1270, 1266, 1267
1834, 1033, 1036, 179
1835, 979, 983, 957
1836, 927, 983, 958
1837, 925, 984, 981
1838, 985, 984, 982
1839, 1037, 1033, 985
1840, 1033, 1034, 1032
1841, 988, 986, 920
1842, 986, 958, 987
1843, 983, 987, 958
1844, 979, 954, 987
1845, 927, 988, 916
1846, 986, 988, 958
1847, 931, 989, 830
1848, 834, 989, 959
1849, 969, 990, 964
1850, 994, 990, 941
1851, 994, 970, 990
1852, 995, 992, 994
1853, 883, 991, 992
1854, 994, 992, 991
1855, 993, 973, 998
1856, 761, 993, 997
1857, 970, 994, 991
1858, 994, 941, 995
1859, 1002, 995, 1012
1860, 1003, 999, 1001
1861, 995, 1001, 973
1862, 1023, 1025, 1021
1863, 998, 997, 993
1864, 1021, 1020, 997
1865, 973, 1001, 1000
1866, 997, 998, 996
1867, 1002, 1003, 995
1868, 1007, 1004, 1006
1869, 973, 1000, 998
1870, 999, 1005, 1007
1871, 941, 1012, 995
1872, 1000, 1001, 999
1873, 972, 1026, 1028
1874, 1067, 1084, 1085
1875, 995, 1003, 1001
1876, 1005, 1030, 1004
1877, 1564, 1133, 1086
1878, 999, 1003, 1005
1879, 1002, 1005, 1003
1880, 1086, 1004, 1084
1881, 1137, 1134, 1135
1882, 1024, 1022, 1023
1883, 1007, 1006, 1010
1884, 999, 1007, 1009
1885, 1567, 1010, 1011
1886, 1360, 1357, 1363
1887, 1010, 1009, 1007
1888, 1048, 1024, 1009
1889, 1011, 1010, 1006
1890, 1010, 1008, 1074
1891, 1134, 1006, 1133
1892, 1150, 1152, 1154
1893, 941, 972, 1012
1894, 1028, 1012, 972
1895, 1085, 1066, 139
1896, 1030, 1029, 1084
1897, 1050, 1077, 1052
1898, 1014, 975, 1031
1899, 957, 985, 1015
1900, 1032, 1015, 985
1901, 1102, 1072, 1093
1902, 955, 1039, 1094
1903, 1040, 1041, 1017
1904, 1043, 1042, 1017
1905, 1018, 763, 1019
1906, 761, 997, 1018
1907, 810, 1019, 763
1908, 762, 1019, 755
1909, 763, 997, 1020
1910, 1021, 997, 996
1911, 1023, 996, 1024
1912, 1021, 996, 1023
1913, 1129, 1048, 1074
1914, 1025, 896, 1021
1915, 1024, 996, 1000
1916, 1023, 1022, 1025
1917, 1000, 1009, 1024
1918, 1009, 1074, 1048
1919, 1025, 1022, 1075
1920, 899, 1050, 898
1921, 1027, 968, 330
1922, 1028, 1026, 1013
1923, 1027, 330, 1520
1924, 1013, 1026, 1027
1925, 1028, 1013, 1029
1926, 1028, 1002, 1012
1927, 1066, 1029, 1013
1928, 1087, 1067, 1085
1929, 1002, 1028, 1030
1930, 1029, 1030, 1028
1931, 1057, 1061, 975
1932, 944, 1031, 1069
1933, 1032, 985, 1033
1934, 1038, 1032, 145
1935, 1265, 1037, 985
1936, 1037, 1036, 1033
1937, 230, 1034, 179
1938, 1032, 1034, 145
1939, 1142, 1161, 1159
1940, 1156, 1140, 1158
1941, 1036, 1035, 1090
1942, 1071, 1036, 1156
1943, 1265, 985, 982
1944, 1036, 1037, 1035
1945, 229, 1038, 145
1946, 311, 1015, 1038
1947, 1072, 980, 865
1948, 1095, 1094, 1039
1949, 1041, 1040, 955
1950, 1040, 1017, 1042
1951, 1094, 1098, 955
1952, 1289, 1286, 1287
1953, 1288, 1291, 1017
1954, 864, 1044, 823
1955, 1045, 1043, 854
1956, 1046, 1047, 1045
1957, 863, 1042, 1044
1958, 1043, 1044, 1042
1959, 856, 1045, 854
1960, 1046, 1045, 850
1961, 867, 1046, 850
1962, 1047, 823, 1044
1963, 1045, 1047, 1043
1964, 823, 1047, 1046
1965, 1049, 1128, 1150
1966, 1022, 1024, 1048
1967, 1131, 1048, 1129
1968, 1350, 1064, 1154
1969, 896, 1025, 1050
1970, 1076, 1077, 1075
1971, 1056, 1055, 1051
1972, 1052, 1053, 898
1973, 1077, 1050, 1025
1974, 1052, 1051, 1053
1975, 1055, 1053, 1051
1976, 975, 1014, 1053
1977, 1060, 1054, 1065
1978, 1256, 1306, 1254
1979, 1051, 1076, 1056
1980, 1055, 1054, 1057
1981, 1056, 1049, 1063
1982, 1054, 1055, 1056
1983, 1060, 1058, 1059
1984, 1237, 1221, 1225
1985, 1192, 1208, 1196
1986, 1059, 1061, 1057
1987, 1060, 1059, 1054
1988, 1059, 1058, 1061
1989, 1063, 1065, 1056
1990, 1355, 1360, 1353
1991, 1061, 1081, 1080
1992, 837, 943, 1089
1993, 1062, 1063, 1064
1994, 1064, 1150, 1154
1995, 1064, 1063, 1049
1996, 1065, 1063, 1062
1997, 1075, 1128, 1049
1998, 1150, 1083, 1152
1999, 1065, 1062, 1599
2000, 1056, 1065, 1054
2001, 1013, 163, 1066
2002, 1562, 1066, 163
2003, 1088, 1564, 1510
2004, 1030, 1084, 1004
2005, 944, 900, 1068
2006, 1014, 1068, 900
2007, 975, 1078, 1031
2008, 1563, 1080, 1082
2009, 1264, 1139, 1155
2010, 1275, 1157, 1272
2011, 239, 1071, 157
2012, 179, 1036, 1071
2013, 1091, 865, 862
2014, 1072, 865, 1091
2015, 1073, 1094, 1095
2016, 1139, 1283, 1285
2017, 1010, 1074, 1009
2018, 1129, 1074, 1008
2019, 1083, 1131, 1129
2020, 1049, 1056, 1076
2021, 1077, 1076, 1051
2022, 1049, 1076, 1075
2023, 1052, 1077, 1051
2024, 1075, 1077, 1025
2025, 1078, 1061, 1080
2026, 1031, 1078, 1563
2027, 1080, 1081, 1312
2028, 1099, 1110, 1112
2029, 1081, 1061, 1058
2030, 1080, 1079, 1082
2031, 1252, 1145, 1058
2032, 1222, 1570, 1220
2033, 1260, 1148, 1127
2034, 1069, 1082, 1127
2035, 1129, 1008, 1130
2036, 1129, 1130, 1153
2037, 1085, 1084, 1029
2038, 1086, 1084, 1067
2039, 1066, 1085, 1029
2040, 1087, 159, 1564
2041, 1087, 1564, 1067
2042, 1006, 1004, 1086
2043, 1085, 139, 1087
2044, 1132, 1087, 139
2045, 1135, 1134, 1088
2046, 1006, 1086, 1133
2047, 944, 1069, 1089
2048, 837, 1089, 1069
2049, 1264, 1155, 1090
2050, 1090, 1070, 1140
2051, 791, 1092, 793
2052, 1091, 793, 1092
2053, 1399, 938, 1396
2054, 1093, 1072, 1091
2055, 1114, 1440, 1109
2056, 1120, 1116, 1118
2057, 1095, 1039, 1016
2058, 1098, 1094, 1141
2059, 1016, 1102, 1100
2060, 1101, 1073, 1095
2061, 1141, 1107, 1108
2062, 1096, 1161, 1289
2063, 1114, 1109, 1093
2064, 1170, 1171, 1144
2065, 1141, 1094, 1073
2066, 1041, 1098, 1096
2067, 1103, 1110, 1099
2068, 1073, 1101, 1107
2069, 1016, 1072, 1102
2070, 1103, 1100, 1097
2071, 1100, 1101, 1095
2072, 1143, 1107, 1101
2073, 1109, 1102, 1093
2074, 1097, 1100, 1102
2075, 1565, 1110, 1103
2076, 1101, 1103, 1099
2077, 1112, 1113, 1143
2078, 1295, 1166, 1294
2079, 835, 1149, 1326
2080, 1216, 1566, 1125
2081, 1097, 1102, 1115
2082, 1177, 1175, 361
2083, 1143, 1101, 1099
2084, 1107, 1104, 1108
2085, 1163, 1142, 1162
2086, 1090, 1155, 1070
2087, 1114, 1093, 1092
2088, 1109, 1105, 1115
2089, 1565, 1103, 1097
2090, 1106, 1211, 1112
2091, 1106, 1216, 1214
2092, 1113, 1104, 1143
2093, 1106, 1112, 1110
2094, 1112, 1111, 1113
2095, 1111, 1164, 1113
2096, 1164, 1168, 1113
2097, 791, 1482, 1092
2098, 1399, 1398, 1401
2099, 1118, 1115, 1105
2100, 1097, 1115, 1117
2101, 1483, 1440, 1441
2102, 1122, 1116, 1120
2103, 1118, 1117, 1115
2104, 1124, 1125, 1566
2105, 1404, 1119, 1439
2106, 1118, 1116, 1566
2107, 1328, 1396, 870
2108, 1262, 1326, 1149
2109, 1439, 1118, 1105
2110, 1119, 1437, 1122
2111, 1081, 1145, 1308
2112, 335, 1524, 1525
2113, 1119, 1122, 1120
2114, 1348, 1124, 1122
2115, 1261, 1146, 1260
2116, 1195, 1183, 1179
2117, 1348, 1122, 1121
2118, 1124, 1123, 1125
2119, 1189, 1188, 1182
2120, 1193, 1165, 1200
2121, 1453, 1454, 1587
2122, 1303, 1226, 1230
2123, 1261, 1260, 1079
2124, 837, 1127, 1147
2125, 1131, 1075, 1022
2126, 1150, 1128, 1083
2127, 1130, 1008, 1567
2128, 1131, 1083, 1128
2129, 1569, 1137, 1138
2130, 1485, 1447, 1484
2131, 1075, 1131, 1128
2132, 1022, 1048, 1131
2133, 158, 1132, 139
2134, 159, 1132, 192
2135, 1564, 1086, 1067
2136, 1134, 1133, 1088
2137, 1088, 1510, 1135
2138, 1006, 1134, 1011
2139, 195, 1136, 1135
2140, 1136, 1137, 1135
2141, 287, 1136, 195
2142, 242, 333, 1568
2143, 1568, 1136, 242
2144, 1569, 1130, 1567
2145, 1568, 1138, 1137
2146, 1450, 1451, 1452
2147, 1270, 1267, 1268
2148, 1142, 1159, 1162
2149, 1271, 1140, 1070
2150, 1158, 1140, 1273
2151, 1098, 1141, 1096
2152, 1107, 1141, 1073
2153, 1276, 1108, 1104
2154, 1408, 1264, 1266
2155, 1107, 1143, 1104
2156, 1112, 1143, 1099
2157, 1164, 1167, 1144
2158, 1292, 1279, 1294
2159, 1252, 1058, 1060
2160, 1309, 1308, 1145
2161, 1312, 1308, 1310
2162, 1471, 1396, 1328
2163, 1127, 1082, 1260
2164, 1147, 1127, 1148
2165, 1149, 1148, 1329
2166, 832, 1149, 835
2167, 1147, 1148, 1149
2168, 1329, 1148, 1146
2169, 1153, 1152, 1083
2170, 1049, 1150, 1064
2171, 1452, 1451, 333
2172, 1532, 215, 1533
2173, 1083, 1129, 1153
2174, 1152, 1151, 1154
2175, 1153, 1485, 1484
2176, 1152, 1153, 1484
2177, 1446, 1448, 1333
2178, 1257, 1258, 1253
2179, 1264, 1090, 1035
2180, 1283, 1281, 1274
2181, 1071, 1156, 157
2182, 1090, 1156, 1036
2183, 1157, 1271, 1272
2184, 1275, 1335, 1157
2185, 190, 1158, 138
2186, 1156, 1158, 157
2187, 1108, 1276, 1162
2188, 1142, 1269, 1161
2189, 1168, 1277, 1113
2190, 1070, 1274, 1272
2191, 1161, 923, 1286
2192, 1096, 1159, 1161
2193, 1108, 1162, 1159
2194, 1163, 1162, 1160
2195, 1278, 1295, 1280
2196, 1334, 1139, 1408
2197, 1111, 1204, 1167
2198, 1168, 1164, 1293
2199, 1211, 1197, 1204
2200, 1205, 1192, 1198
2201, 1144, 1171, 1176
2202, 1277, 1278, 1276
2203, 1111, 1167, 1164
2204, 1165, 1190, 1170
2205, 1293, 1164, 1144
2206, 1168, 1166, 1277
2207, 1188, 1179, 1182
2208, 1172, 1174, 507
2209, 1165, 1170, 1167
2210, 1171, 1170, 1169
2211, 1172, 1171, 1169
2212, 1171, 505, 1176
2213, 1187, 1174, 1169
2214, 505, 1172, 507
2215, 1190, 1184, 1187
2216, 444, 1180, 1183
2217, 1169, 1174, 1172
2218, 1174, 1173, 1175
2219, 1173, 1182, 1181
2220, 461, 1180, 444
2221, 1292, 1176, 505
2222, 1293, 1176, 1294
2223, 1178, 361, 445
2224, 1174, 1177, 507
2225, 1178, 445, 368
2226, 507, 1177, 1178
2227, 1181, 1182, 1179
2228, 1210, 1300, 1191
2229, 361, 1175, 1180
2230, 1181, 1180, 1175
2231, 1173, 1181, 1175
2232, 1181, 1179, 1183
2233, 1173, 1187, 1185
2234, 1182, 1173, 1185
2235, 1179, 1194, 1195
2236, 1338, 1296, 1297
2237, 1201, 1192, 1196
2238, 1186, 1189, 1196
2239, 1173, 1174, 1187
2240, 1189, 1185, 1184
2241, 1193, 1184, 1190
2242, 1340, 1342, 1347
2243, 1190, 1187, 1169
2244, 1184, 1185, 1187
2245, 1189, 1182, 1185
2246, 1299, 1194, 1188
2247, 1198, 1192, 1201
2248, 1188, 1189, 1186
2249, 1170, 1190, 1169
2250, 1190, 1165, 1193
2251, 1196, 1203, 1186
2252, 1341, 1195, 1339
2253, 1199, 1208, 1212
2254, 1194, 1299, 1191
2255, 1200, 1204, 1197
2256, 1184, 1193, 1198
2257, 1299, 1188, 1186
2258, 1194, 1191, 1195
2259, 1339, 1195, 1191
2260, 1183, 1297, 1296
2261, 1201, 1189, 1184
2262, 1208, 1203, 1196
2263, 1214, 1197, 1211
2264, 1245, 1238, 1242
2265, 1206, 1193, 1200
2266, 1205, 1198, 1206
2267, 1205, 1207, 1192
2268, 1459, 1461, 1231
2269, 1204, 1200, 1165
2270, 1202, 1205, 1206
2271, 1189, 1201, 1196
2272, 1184, 1198, 1201
2273, 1217, 1197, 1214
2274, 1212, 1208, 1207
2275, 1213, 1203, 1199
2276, 1186, 1203, 1210
2277, 1167, 1204, 1165
2278, 1204, 1111, 1211
2279, 1198, 1193, 1206
2280, 1207, 1205, 1202
2281, 1200, 1197, 1206
2282, 1202, 1206, 1197
2283, 1240, 1242, 1238
2284, 1331, 1146, 1405
2285, 1207, 1208, 1192
2286, 1199, 1203, 1208
2287, 1218, 1209, 1213
2288, 1220, 1227, 1222
2289, 1213, 1210, 1203
2290, 1300, 1210, 1209
2291, 1112, 1211, 1111
2292, 1211, 1106, 1214
2293, 1237, 1225, 1234
2294, 1226, 1459, 1231
2295, 1219, 1218, 1213
2296, 1210, 1213, 1209
2297, 1106, 1565, 1216
2298, 1217, 1214, 1301
2299, 1219, 1215, 1218
2300, 1223, 1215, 1219
2301, 1566, 1216, 1117
2302, 1301, 1216, 1125
2303, 1241, 1125, 1123
2304, 1197, 1217, 1240
2305, 1219, 1213, 1199
2306, 1570, 1222, 1218
2307, 1212, 1225, 1199
2308, 1219, 1225, 1223
2309, 1231, 1570, 1230
2310, 1228, 1233, 335
2311, 1234, 1225, 1212
2312, 1248, 1249, 1221
2313, 1570, 1218, 1215
2314, 1224, 1227, 1228
2315, 1219, 1199, 1225
2316, 1303, 1230, 1223
2317, 1347, 1345, 1346
2318, 1222, 1227, 1209
2319, 1236, 1234, 1212
2320, 1221, 1223, 1225
2321, 1237, 1248, 1221
2322, 1497, 1410, 1495
2323, 1228, 1227, 1220
2324, 1227, 1224, 1344
2325, 1228, 1220, 1235
2326, 1228, 335, 1525
2327, 1229, 1234, 1236
2328, 1244, 1302, 1479
2329, 1303, 1223, 1221
2330, 1230, 1226, 1231
2331, 1459, 1226, 1457
2332, 1523, 1233, 171
2333, 1457, 1226, 1349
2334, 1233, 1508, 171
2335, 1235, 1233, 1228
2336, 1508, 1232, 1506
2337, 1236, 1212, 1207
2338, 1234, 1229, 1237
2339, 1461, 1220, 1231
2340, 1233, 1235, 1232
2341, 1202, 1238, 1207
2342, 1236, 1207, 1238
2343, 1229, 1243, 1237
2344, 1248, 1243, 1250
2345, 1240, 1202, 1197
2346, 1238, 1202, 1240
2347, 1245, 1247, 1229
2348, 1325, 1320, 1324
2349, 1241, 1217, 1125
2350, 1241, 1240, 1217
2351, 1244, 1242, 1241
2352, 1240, 1241, 1242
2353, 1244, 1241, 1123
2354, 1245, 1236, 1238
2355, 1229, 1236, 1245
2356, 1243, 1239, 1250
2357, 1124, 1348, 1123
2358, 1243, 1229, 1247
2359, 1244, 1571, 1242
2360, 1247, 1239, 1243
2361, 1250, 1251, 1490
2362, 1410, 1458, 1462
2363, 1245, 1571, 1247
2364, 1244, 1123, 1302
2365, 1243, 1248, 1237
2366, 1249, 1248, 1246
2367, 1453, 1304, 1349
2368, 1226, 1249, 1349
2369, 1250, 1239, 1493
2370, 1248, 1250, 1246
2371, 1475, 1477, 1302
2372, 1317, 1311, 1314
2373, 1254, 1252, 1060
2374, 1145, 1252, 1306
2375, 1599, 1257, 1060
2376, 1579, 1580, 1427
2377, 1257, 1599, 1255
2378, 1254, 1253, 1256
2379, 1064, 1350, 1352
2380, 1333, 1154, 1151
2381, 1253, 1367, 1366
2382, 1317, 1256, 1366
2383, 1060, 1257, 1254
2384, 1258, 1257, 1255
2385, 1599, 1352, 1255
2386, 1430, 1468, 1428
2387, 1259, 1308, 1309
2388, 1477, 1478, 1491
2389, 1079, 1260, 1082
2390, 1146, 1148, 1260
2391, 1310, 1079, 1312
2392, 1405, 1310, 1315
2393, 1146, 1261, 1405
2394, 1327, 1328, 870
2395, 1357, 1574, 1364
2396, 1305, 1354, 1356
2397, 1035, 1265, 1264
2398, 1264, 1265, 1266
2399, 1037, 1265, 1035
2400, 1266, 1265, 982
2401, 1266, 982, 1267
2402, 1334, 1408, 1270
2403, 984, 1267, 982
2404, 1268, 1267, 925
2405, 926, 1268, 925
2406, 1269, 1268, 923
2407, 1161, 1269, 923
2408, 1163, 1334, 1142
2409, 1268, 1269, 1270
2410, 1142, 1334, 1269
2411, 1272, 1271, 1070
2412, 1273, 1271, 1157
2413, 1155, 1285, 1070
2414, 1275, 465, 1335
2415, 1337, 1273, 1157
2416, 1158, 1273, 138
2417, 1280, 1160, 1278
2418, 1272, 1274, 1573
2419, 1573, 1282, 1284
2420, 1275, 1284, 1572
2421, 1277, 1276, 1104
2422, 1162, 1276, 1160
2423, 1277, 1104, 1113
2424, 1278, 1277, 1166
2425, 1166, 1293, 1294
2426, 1160, 1276, 1278
2427, 1281, 1279, 1282
2428, 1280, 1281, 1283
2429, 1281, 1280, 1279
2430, 1163, 1160, 1280
2431, 1279, 1292, 1282
2432, 1285, 1283, 1274
2433, 1284, 1282, 503
2434, 1274, 1281, 1282
2435, 1139, 1163, 1283
2436, 1280, 1283, 1163
2437, 503, 504, 1572
2438, 1573, 1275, 1272
2439, 1070, 1285, 1274
2440, 1139, 1285, 1155
2441, 924, 1286, 923
2442, 1287, 1286, 921
2443, 1287, 921, 1288
2444, 1289, 1287, 1041
2445, 1290, 1288, 921
2446, 1043, 1291, 854
2447, 1096, 1289, 1041
2448, 1161, 1286, 1289
2449, 922, 1290, 921
2450, 1290, 857, 858
2451, 1017, 1291, 1043
2452, 1290, 1291, 1288
2453, 506, 1292, 505
2454, 1292, 503, 1282
2455, 1168, 1293, 1166
2456, 1144, 1176, 1293
2457, 1292, 1294, 1176
2458, 1280, 1295, 1279
2459, 1166, 1295, 1278
2460, 1279, 1295, 1294
2461, 444, 1183, 1296
2462, 1183, 1195, 1297
2463, 1341, 1297, 1195
2464, 1338, 1297, 170
2465, 1339, 1340, 1298
2466, 1298, 1343, 1341
2467, 1186, 1210, 1299
2468, 1191, 1299, 1210
2469, 1344, 1209, 1227
2470, 1342, 1340, 1300
2471, 1216, 1301, 1214
2472, 1125, 1217, 1301
2473, 1330, 1262, 1329
2474, 1438, 1475, 1121
2475, 1221, 1249, 1303
2476, 1226, 1303, 1249
2477, 1249, 1456, 1349
2478, 1309, 1314, 1319
2479, 1351, 1154, 1333
2480, 1351, 1354, 1305
2481, 1145, 1306, 1126
2482, 1254, 1306, 1252
2483, 1414, 1381, 1323
2484, 1321, 1391, 1318
2485, 1309, 1145, 1126
2486, 1308, 1259, 1310
2487, 1317, 1314, 1126
2488, 1309, 1126, 1314
2489, 1315, 1310, 1259
2490, 1261, 1079, 1310
2491, 1320, 1322, 1324
2492, 1319, 1321, 1318
2493, 1080, 1312, 1079
2494, 1308, 1312, 1081
2495, 1315, 1316, 1313
2496, 1470, 1402, 1397
2497, 1317, 1126, 1256
2498, 1316, 1259, 1318
2499, 1316, 1315, 1259
2500, 1315, 1313, 1405
2501, 1309, 1318, 1259
2502, 1412, 1467, 1365
2503, 1366, 1256, 1253
2504, 1368, 1317, 1307
2505, 1311, 1319, 1314
2506, 1309, 1319, 1318
2507, 1322, 1319, 1311
2508, 1322, 1321, 1319
2509, 1311, 1317, 1368
2510, 1434, 1586, 1435
2511, 1392, 1394, 1395
2512, 1479, 1477, 1491
2513, 1311, 1368, 1324
2514, 1322, 1320, 1433
2515, 1368, 1370, 1414
2516, 1369, 1375, 1379
2517, 1311, 1324, 1322
2518, 1324, 1323, 1416
2519, 1379, 1381, 1414
2520, 1418, 1325, 1417
2521, 1326, 1262, 1472
2522, 937, 1327, 870
2523, 835, 1327, 937
2524, 1328, 1327, 1326
2525, 1330, 1444, 1262
2526, 870, 1396, 938
2527, 1330, 1329, 1146
2528, 1149, 1329, 1262
2529, 1442, 1146, 1331
2530, 1332, 1471, 1472
2531, 1331, 1313, 1412
2532, 1330, 1442, 1444
2533, 1330, 1146, 1442
2534, 1119, 1403, 1402
2535, 1333, 1151, 1446
2536, 1351, 1305, 1350
2537, 1139, 1334, 1163
2538, 1269, 1334, 1270
2539, 465, 502, 1336
2540, 1335, 130, 1337
2541, 136, 1336, 286
2542, 130, 1335, 1336
2543, 155, 1337, 130
2544, 1337, 138, 1273
2545, 273, 1338, 170
2546, 1296, 1338, 174
2547, 1340, 1339, 1191
2548, 1341, 1339, 1298
2549, 1191, 1300, 1340
2550, 1209, 1344, 1300
2551, 1298, 1347, 1343
2552, 1297, 1341, 170
2553, 1345, 1342, 1224
2554, 1347, 1298, 1340
2555, 219, 1343, 141
2556, 170, 1341, 1343
2557, 1224, 1342, 1344
2558, 1300, 1344, 1342
2559, 1525, 1345, 1224
2560, 1346, 1345, 172
2561, 220, 1346, 172
2562, 1347, 1346, 141
2563, 1347, 141, 1343
2564, 1345, 1347, 1342
2565, 1475, 1348, 1121
2566, 1123, 1348, 1302
2567, 1456, 1246, 1409
2568, 1458, 1457, 1349
2569, 1351, 1350, 1154
2570, 1352, 1350, 1305
2571, 1263, 1355, 1333
2572, 1255, 1305, 1356
2573, 1255, 1352, 1305
2574, 1064, 1352, 1062
2575, 1355, 1354, 1351
2576, 1355, 1263, 1358
2577, 1351, 1333, 1355
2578, 1354, 1353, 1356
2579, 1357, 1358, 1359
2580, 1353, 1354, 1355
2581, 1411, 1356, 1353
2582, 1258, 1255, 1356
2583, 1386, 1421, 1422
2584, 1358, 1360, 1355
2585, 1359, 1358, 1263
2586, 1358, 1357, 1360
2587, 1333, 1448, 1263
2588, 1511, 1574, 215
2589, 1364, 1363, 1357
2590, 1353, 1360, 1362
2591, 1387, 1385, 1386
2592, 1411, 1362, 1258
2593, 1363, 1362, 1360
2594, 1370, 1371, 1369
2595, 1359, 1574, 1357
2596, 1363, 1361, 1576
2597, 1423, 166, 212
2598, 1363, 1364, 1421
2599, 1393, 1467, 1316
2600, 1316, 1318, 1391
2601, 1367, 1253, 1258
2602, 1307, 1317, 1366
2603, 1413, 1362, 1374
2604, 1366, 1367, 1372
2605, 1370, 1368, 1307
2606, 1324, 1368, 1323
2607, 1307, 1366, 1372
2608, 1578, 1429, 1431
2609, 1371, 1370, 1307
2610, 1370, 1369, 1414
2611, 1371, 1307, 1372
2612, 1378, 1373, 1375
2613, 1413, 1367, 1258
2614, 1367, 1413, 1372
2615, 1369, 1371, 1375
2616, 1376, 1372, 1374
2617, 1576, 1362, 1363
2618, 1378, 1376, 1382
2619, 1371, 1372, 1376
2620, 1585, 1373, 1584
2621, 1382, 1383, 1380
2622, 1371, 1378, 1375
2623, 1430, 1428, 1427
2624, 1494, 1501, 1503
2625, 1382, 1376, 1383
2626, 1373, 1378, 1384
2627, 1585, 1375, 1373
2628, 1379, 1377, 1381
2629, 1380, 1383, 1385
2630, 1426, 167, 1521
2631, 1377, 1583, 1417
2632, 1324, 1416, 1325
2633, 1383, 1376, 1374
2634, 1382, 1380, 1384
2635, 1576, 1374, 1362
2636, 1383, 1576, 1385
2637, 1380, 1387, 1389
2638, 1390, 167, 1426
2639, 1361, 1386, 1385
2640, 1387, 1380, 1385
2641, 1421, 1386, 1361
2642, 1386, 1388, 1387
2643, 1388, 1386, 213
2644, 1380, 1389, 1384
2645, 1424, 213, 305
2646, 1388, 1424, 1425
2647, 1425, 1387, 1388
2648, 1425, 1432, 1390
2649, 1384, 1389, 1390
2650, 1390, 1389, 1425
2651, 1394, 1391, 1321
2652, 1316, 1391, 1393
2653, 1433, 1394, 1321
2654, 1492, 1493, 1481
2655, 1394, 1393, 1391
2656, 1480, 1393, 1392
2657, 1321, 1322, 1433
2658, 1393, 1394, 1392
2659, 1395, 1433, 1434
2660, 1251, 1493, 1492
2661, 1332, 1470, 1471
2662, 1400, 1399, 1396
2663, 1436, 1332, 1444
2664, 1119, 1120, 1439
2665, 1403, 1119, 1404
2666, 1482, 1401, 1441
2667, 1400, 1396, 1397
2668, 1483, 1441, 1398
2669, 1400, 1397, 1402
2670, 1398, 1399, 1400
2671, 791, 1577, 1401
2672, 1577, 1557, 1401
2673, 1402, 1470, 1436
2674, 1122, 1437, 1121
2675, 1398, 1400, 1403
2676, 1402, 1403, 1400
2677, 1404, 1439, 1440
2678, 1403, 1404, 1483
2679, 1405, 1261, 1310
2680, 1313, 1331, 1405
2681, 1406, 1442, 1443
2682, 1438, 1121, 1437
2683, 1447, 1407, 1446
2684, 1450, 347, 1449
2685, 1264, 1408, 1139
2686, 1270, 1408, 1266
2687, 1490, 1246, 1250
2688, 1586, 1418, 1455
2689, 1463, 1462, 1458
2690, 1506, 1497, 1488
2691, 1356, 1411, 1258
2692, 1353, 1362, 1411
2693, 1467, 1412, 1313
2694, 1445, 1443, 1412
2695, 1362, 1413, 1258
2696, 1372, 1413, 1374
2697, 1414, 1323, 1368
2698, 1379, 1414, 1369
2699, 1579, 1427, 1578
2700, 1454, 1453, 1409
2701, 1323, 1381, 1416
2702, 1417, 1416, 1381
2703, 1377, 1417, 1381
2704, 1417, 1415, 1418
2705, 1415, 1588, 1418
2706, 1454, 1420, 1455
2707, 1464, 1465, 1466
2708, 1496, 1487, 1498
2709, 1435, 1420, 1469
2710, 1434, 1435, 1395
2711, 1363, 1421, 1361
2712, 1422, 1421, 1364
2713, 1422, 1364, 1575
2714, 213, 1386, 1422
2715, 213, 1422, 1423
2716, 166, 1423, 1422
2717, 1425, 1424, 217
2718, 213, 1424, 1388
2719, 1425, 217, 1432
2720, 1387, 1425, 1389
2721, 1426, 334, 1428
2722, 1390, 1426, 1468
2723, 1429, 1428, 334
2724, 168, 1431, 1429
2725, 334, 1522, 1429
2726, 1584, 1427, 1580
2727, 168, 1509, 1431
2728, 1427, 1428, 1429
2729, 1373, 1384, 1430
2730, 1468, 1430, 1384
2731, 1460, 1494, 1487
2732, 1578, 1427, 1429
2733, 271, 1432, 217
2734, 167, 1390, 1432
2735, 1434, 1433, 1320
2736, 1394, 1433, 1395
2737, 1320, 1325, 1434
2738, 1586, 1434, 1325
2739, 1420, 1454, 1469
2740, 1492, 1435, 1251
2741, 1443, 1445, 1406
2742, 1473, 1438, 1437
2743, 1119, 1402, 1437
2744, 1473, 1402, 1436
2745, 1474, 1436, 1406
2746, 1302, 1348, 1475
2747, 1118, 1439, 1120
2748, 1440, 1439, 1105
2749, 1109, 1440, 1105
2750, 1440, 1114, 1441
2751, 1482, 1441, 1114
2752, 1398, 1441, 1401
2753, 1443, 1442, 1331
2754, 1444, 1442, 1406
2755, 1331, 1412, 1443
2756, 1445, 1412, 1365
2757, 1436, 1444, 1406
2758, 1444, 1332, 1262
2759, 1477, 1475, 1476
2760, 1474, 1438, 1436
2761, 1447, 1446, 1151
2762, 1446, 1407, 1448
2763, 1484, 1447, 1151
2764, 1447, 1138, 1486
2765, 1449, 1448, 1407
2766, 1359, 1263, 1448
2767, 1450, 1449, 1407
2768, 1449, 347, 1533
2769, 1450, 1407, 1451
2770, 1450, 214, 1531
2771, 1407, 1447, 1451
2772, 1486, 1451, 1447
2773, 307, 1452, 333
2774, 1450, 1452, 214
2775, 1456, 1453, 1349
2776, 1469, 1454, 1409
2777, 1420, 1586, 1455
2778, 1454, 1455, 1587
2779, 1588, 1455, 1418
2780, 1587, 1455, 1419
2781, 1246, 1456, 1249
2782, 1453, 1456, 1409
2783, 1458, 1349, 1304
2784, 1457, 1410, 1459
2785, 1304, 1463, 1458
2786, 1410, 1457, 1458
2787, 1497, 1459, 1410
2788, 1461, 1459, 1232
2789, 1463, 1304, 1464
2790, 1463, 1464, 1460
2791, 1232, 1235, 1461
2792, 1220, 1461, 1235
2793, 1487, 1462, 1460
2794, 1499, 1488, 1498
2795, 1304, 1587, 1464
2796, 1462, 1463, 1460
2797, 1588, 1465, 1419
2798, 1464, 1419, 1465
2799, 1583, 1579, 1582
2800, 1464, 1466, 1460
2801, 1465, 1489, 1466
2802, 1501, 1494, 1466
2803, 1316, 1467, 1313
2804, 1365, 1467, 1393
2805, 1390, 1468, 1384
2806, 1428, 1468, 1426
2807, 1490, 1409, 1246
2808, 1251, 1435, 1469
2809, 1471, 1470, 1397
2810, 1332, 1436, 1470
2811, 1396, 1471, 1397
2812, 1471, 1328, 1472
2813, 1326, 1472, 1328
2814, 1262, 1332, 1472
2815, 1402, 1473, 1437
2816, 1436, 1438, 1473
2817, 1406, 1445, 1474
2818, 1476, 1474, 1445
2819, 1476, 1438, 1474
2820, 1475, 1438, 1476
2821, 1365, 1478, 1445
2822, 1365, 1480, 1478
2823, 1478, 1477, 1476
2824, 1480, 1491, 1478
2825, 1445, 1478, 1476
2826, 1365, 1393, 1480
2827, 1479, 1247, 1571
2828, 1302, 1477, 1479
2829, 1392, 1481, 1480
2830, 1491, 1500, 1479
2831, 1481, 1392, 1492
2832, 1247, 1479, 1500
2833, 1092, 1482, 1114
2834, 1401, 1482, 791
2835, 1403, 1483, 1398
2836, 1440, 1483, 1404
2837, 1152, 1484, 1151
2838, 1153, 1130, 1485
2839, 1569, 1485, 1130
2840, 1447, 1485, 1138
2841, 1568, 1486, 1138
2842, 1451, 1486, 333
2843, 1494, 1460, 1466
2844, 1487, 1504, 1505
2845, 1410, 1462, 1495
2846, 1462, 1496, 1495
2847, 1465, 1583, 1582
2848, 1489, 1502, 1501
2849, 1251, 1469, 1490
2850, 1409, 1490, 1469
2851, 1480, 1481, 1491
2852, 1481, 1493, 1500
2853, 1392, 1395, 1492
2854, 1492, 1395, 1435
2855, 1250, 1493, 1251
2856, 1500, 1493, 1239
2857, 1466, 1489, 1501
2858, 1504, 1494, 1503
2859, 1496, 1462, 1487
2860, 1497, 1495, 1488
2861, 1498, 1487, 211
2862, 1488, 1495, 1496
2863, 1506, 1488, 223
2864, 1459, 1497, 1232
2865, 264, 1499, 211
2866, 1488, 1496, 1498
2867, 304, 223, 1499
2868, 1488, 1499, 223
2869, 1247, 1500, 1239
2870, 1491, 1481, 1500
2871, 1489, 1581, 1502
2872, 1501, 1502, 1503
2873, 1431, 140, 1502
2874, 1503, 1502, 140
2875, 140, 164, 1589
2876, 1503, 165, 1504
2877, 210, 1505, 165
2878, 1487, 1494, 1504
2879, 264, 1505, 263
2880, 1487, 1505, 211
2881, 1506, 223, 1507
2882, 1232, 1497, 1506
2883, 223, 275, 1507
2884, 275, 171, 1507
2885, 1232, 1508, 1233
2886, 1507, 1508, 1506
2887, 1431, 1509, 140
2888, 218, 1509, 168
2889, 1510, 195, 1135
2890, 194, 1510, 159
2891, 1422, 1575, 166
2892, 269, 1511, 215
2893, 1513, 181, 232
2894, 1512, 280, 314
2895, 1513, 133, 281
2896, 1512, 1513, 280
2897, 1517, 228, 278
2898, 1515, 1514, 310
2899, 310, 1534, 1516
2900, 949, 1515, 913
2901, 913, 1515, 1516
2902, 310, 1516, 1515
2903, 1534, 148, 336
2904, 1514, 1517, 310
2905, 1520, 260, 303
2906, 1519, 1518, 330
2907, 968, 1519, 330
2908, 162, 1519, 805
2909, 1027, 1520, 163
2910, 1518, 1520, 330
2911, 1522, 270, 308
2912, 1426, 1521, 334
2913, 1429, 1522, 168
2914, 1521, 1522, 334
2915, 1524, 274, 309
2916, 1233, 1523, 335
2917, 1525, 1524, 172
2918, 1523, 1524, 335
2919, 1345, 1525, 172
2920, 1228, 1525, 1224
2921, 282, 1526, 234
2922, 135, 1526, 320
2923, 1529, 296, 328
2924, 1528, 1527, 345
2925, 1528, 345, 511
2926, 199, 1528, 357
2927, 511, 1529, 200
2928, 1527, 1529, 345
2929, 629, 1530, 204
2930, 300, 1530, 346
2931, 1532, 306, 331
2932, 1450, 1531, 347
2933, 215, 1574, 1533
2934, 1531, 1532, 347
2935, 1449, 1533, 1359
2936, 347, 1532, 1533
2937, 1517, 1534, 310
2938, 316, 1534, 336
2939, 342, 1535, 326
2940, 479, 1535, 351
2941, 352, 1536, 349
2942, 199, 1536, 354
2943, 400, 1538, 1537
2944, 1537, 1538, 1539
2945, 1538, 400, 513
2946, 1539, 1538, 496
2947, 1540, 1539, 496
2948, 407, 1541, 406
2949, 1542, 1540, 496
2950, 492, 406, 1540
2951, 1541, 407, 405
2952, 1540, 1541, 1539
2953, 495, 1542, 496
2954, 487, 490, 1590
2955, 430, 1543, 474
2956, 727, 1543, 436
2957, 429, 1544, 425
2958, 432, 501, 1544
2959, 607, 1545, 525
2960, 528, 1545, 546
2961, 558, 1546, 559
2962, 561, 1546, 547
2963, 593, 1547, 591
2964, 594, 1547, 583
2965, 566, 1548, 603
2966, 616, 1548, 604
2967, 1549, 619, 1593
2968, 579, 1591, 1592
2969, 648, 1550, 646
2970, 660, 1550, 622
2971, 1550, 1551, 646
2972, 707, 1551, 670
2973, 1597, 1552, 587
2974, 592, 1552, 685
2975, 676, 1553, 650
2976, 655, 1553, 697
2977, 694, 1554, 437
2978, 707, 1554, 643
2979, 713, 1555, 710
2980, 770, 1555, 731
2981, 736, 936, 1558
2982, 828, 1556, 788
2983, 788, 1556, 1557
2984, 1556, 736, 1558
2985, 938, 1557, 1558
2986, 1556, 1558, 1557
2987, 802, 1559, 801
2988, 162, 1559, 803
2989, 776, 1560, 777
2990, 774, 813, 1560
2991, 756, 1561, 754
2992, 888, 1561, 749
2993, 207, 1562, 163
2994, 1562, 193, 158
2995, 1031, 1563, 1069
2996, 1080, 1563, 1078
2997, 1510, 1564, 159
2998, 1133, 1564, 1088
2999, 1097, 1117, 1565
3000, 1565, 1117, 1216
3001, 1118, 1566, 1117
3002, 1124, 1566, 1116
3003, 1010, 1567, 1008
3004, 1569, 1567, 1011
3005, 1568, 333, 1486
3006, 1136, 1568, 1137
3007, 1137, 1569, 1011
3008, 1485, 1569, 1138
3009, 1230, 1570, 1215
3010, 1220, 1570, 1231
3011, 1242, 1571, 1245
3012, 1479, 1571, 1244
3013, 1275, 1572, 465
3014, 503, 1572, 1284
3015, 1282, 1573, 1274
3016, 1275, 1573, 1284
3017, 1574, 1359, 1533
3018, 1575, 1511, 166
3019, 1364, 1574, 1575
3020, 1511, 1575, 1574
3021, 1385, 1576, 1361
3022, 1374, 1576, 1383
3023, 792, 1577, 791
3024, 1557, 1577, 788
3025, 1581, 1431, 1502
3026, 1579, 1377, 1580
3027, 1578, 1581, 1579
3028, 1579, 1581, 1582
3029, 1585, 1377, 1379
3030, 1430, 1584, 1373
3031, 1431, 1581, 1578
3032, 1582, 1581, 1489
3033, 1489, 1465, 1582
3034, 1583, 1465, 1415
3035, 1417, 1583, 1415
3036, 1377, 1579, 1583
3037, 1427, 1584, 1430
3038, 1585, 1584, 1580
3039, 1377, 1585, 1580
3040, 1585, 1379, 1375
3041, 1418, 1586, 1325
3042, 1435, 1586, 1420
3043, 1464, 1587, 1419
3044, 1453, 1587, 1304
3045, 1588, 1419, 1455
3046, 1415, 1465, 1588
3047, 165, 1503, 1589
3048, 140, 1589, 1503
3049, 1540, 1590, 492
3050, 487, 1590, 1542
3051, 619, 1591, 582
3052, 1592, 1591, 1549
3053, 587, 1598, 1597
3054, 590, 1592, 587
3055, 722, 1593, 619
3056, 1594, 1593, 691
3057, 756, 1594, 691
3058, 1596, 1595, 754
3059, 1597, 1595, 935
3060, 1593, 1595, 1549
3061, 1561, 1596, 754
3062, 935, 1596, 889
3063, 685, 1597, 935
3064, 587, 1592, 1598
3065, 1592, 1549, 1598
3066, 1595, 1598, 1549
3067, 1065, 1599, 1060
3068, 1352, 1599, 1062
*NSET, NSET=RIM
1,
2,
3,
4,
5,
6,
7,
8,
9,
10,
11,
12,
13,
14,
15,
16,
17,
18,
19,
20,
21,
22,
23,
24,
25,
26,
27,
28,
29,
30,
31,
32,
33,
34,
35,
36,
37,
38,
39,
40,
41,
42,
43,
44,
45,
46,
47,
48,
49,
50,
51,
52,
53,
54,
55,
56,
57,
58,
59,
60,
61,
62,
63,
64,
65,
66,
67,
68,
69,
70,
71,
72,
73,
74,
75,
76,
77,
78,
79,
80,
81,
82,
83,
84,
85,
86,
87,
88,
89,
90,
91,
92,
93,
94,
95,
96,
97,
98,
99,
100,
101,
102,
103,
104,
105,
106,
107,
108,
109,
110,
111,
112,
113,
114,
115,
116,
117,
118,
119,
120,
121,
122,
123,
124,
125,
126,
127,
128,
*ELSET, ELSET=EPRES
1,
2,
3,
4,
5,
6,
7,
8,
9,
10,
11,
12,
13,
14,
15,
16,
17,
18,
19,
20,
21,
22,
23,
24,
25,
26,
27,
28,
29,
30,
31,
32,
33,
34,
35,
36,
37,
38,
39,
40,
41,
42,
43,
44,
45,
46,
47,
48,
49,
50,
51,
52,
53,
54,
55,
56,
57,
58,
59,
60,
61,
62,
63,
64,
65,
66,
67,
68,
69,
70,
71,
72,
73,
74,
75,
76,
77,
78,
79,
80,
81,
82,
83,
84,
85,
86,
87,
88,
89,
90,
91,
92,
93,
94,
95,
96,
97,
98,
99,
100,
101,
102,
103,
104,
105,
106,
107,
108,
109,
110,
111,
112,
113,
114,
115,
116,
117,
118,
119,
120,
121,
122,
123,
124,
125,
126,
127,
128,
129,
130,
131,
132,
133,
134,
135,
136,
137,
138,
139,
140,
141,
142,
143,
144,
145,
146,
147,
148,
149,
150,
151,
152,
153,
154,
155,
156,
157,
158,
159,
160,
161,
162,
163,
164,
165,
166,
167,
168,
169,
170,
171,
172,
173,
174,
175,
176,
177,
178,
179,
180,
181,
182,
183,
184,
185,
186,
187,
188,
189,
190,
191,
192,
193,
194,
195,
196,
197,
198,
199,
200,
201,
202,
203,
204,
205,
206,
207,
208,
209,
210,
211,
212,
213,
214,
215,
216,
217,
218,
219,
220,
221,
222,
223,
224,
225,
226,
227,
228,
229,
230,
231,
232,
233,
234,
235,
236,
237,
238,
239,
240,
241,
242,
243,
244,
245,
246,
247,
248,
249,
250,
251,
252,
253,
254,
255,
256,
257,
258,
259,
260,
261,
262,
263,
264,
265,
266,
267,
268,
269,
270,
271,
272,
273,
274,
275,
276,
277,
278,
279,
280,
281,
282,
283,
284,
285,
286,
287,
288,
289,
290,
291,
292,
293,
294,
295,
296,
297,
298,
299,
300,
301,
302,
303,
304,
305,
306,
307,
308,
309,
310,
311,
312,
313,
314,
315,
316,
317,
318,
319,
320,
321,
322,
323,
324,
325,
326,
327,
328,
329,
330,
331,
332,
333,
334,
335,
336,
337,
338,
339,
340,
341,
342,
343,
344,
345,
346,
347,
348,
349,
350,
351,
352,
353,
354,
355,
356,
357,
358,
359,
360,
361,
362,
363,
364,
365,
366,
367,
368,
369,
370,
371,
372,
373,
374,
375,
376,
377,
378,
379,
380,
381,
382,
383,
384,
385,
386,
387,
388,
389,
390,
391,
392,
393,
394,
395,
396,
397,
398,
399,
400,
401,
402,
403,
404,
405,
406,
407,
408,
409,
410,
411,
412,
413,
414,
415,
416,
417,
418,
419,
420,
421,
422,
423,
424,
425,
426,
427,
428,
429,
430,
431,
432,
433,
434,
435,
436,
437,
438,
439,
440,
441,
442,
443,
444,
445,
446,
447,
448,
449,
450,
451,
452,
453,
454,
455,
456,
457,
458,
459,
460,
461,
462,
463,
464,
465,
466,
467,
468,
469,
470,
471,
472,
473,
474,
475,
476,
477,
478,
479,
480,
481,
482,
483,
484,
485,
486,
487,
488,
489,
490,
491,
492,
493,
494,
495,
496,
497,
498,
499,
500,
501,
502,
503,
504,
505,
506,
507,
508,
509,
510,
511,
512,
513,
514,
515,
516,
517,
518,
519,
520,
521,
522,
523,
524,
525,
526,
527,
528,
529,
530,
531,
532,
533,
534,
535,
536,
537,
538,
539,
540,
541,
542,
543,
544,
545,
546,
547,
548,
549,
550,
551,
552,
553,
554,
555,
556,
557,
558,
559,
560,
561,
562,
563,
564,
565,
566,
567,
568,
569,
570,
571,
572,
573,
574,
575,
576,
577,
578,
579,
580,
581,
582,
583,
584,
585,
586,
587,
588,
589,
590,
591,
592,
593,
594,
595,
596,
597,
598,
599,
600,
601,
602,
603,
604,
605,
606,
607,
608,
609,
610,
611,
612,
613,
614,
615,
616,
617,
618,
619,
620,
621,
622,
623,
624,
625,
626,
627,
628,
629,
630,
631,
632,
633,
634,
635,
636,
637,
638,
639,
640,
641,
642,
643,
644,
645,
646,
647,
648,
649,
650,
651,
652,
653,
654,
655,
656,
657,
658,
659,
660,
661,
662,
663,
664,
665,
666,
667,
668,
669,
670,
671,
672,
673,
674,
675,
676,
677,
678,
679,
680,
681,
682,
683,
684,
685,
686,
687,
688,
689,
690,
691,
692,
693,
694,
695,
696,
697,
698,
699,
700,
701,
702,
703,
704,
705,
706,
707,
708,
709,
710,
711,
712,
713,
714,
715,
716,
717,
718,
719,
720,
721,
722,
723,
724,
725,
726,
727,
728,
729,
730,
731,
732,
733,
734,
735,
736,
737,
738,
739,
740,
741,
742,
743,
744,
745,
746,
747,
748,
749,
750,
751,
752,
753,
754,
755,
756,
757,
758,
759,
760,
761,
762,
763,
764,
765,
766,
767,
768,
769,
770,
771,
772,
773,
774,
775,
776,
777,
778,
779,
780,
781,
782,
783,
784,
785,
786,
787,
788,
789,
790,
791,
792,
793,
794,
795,
796,
797,
798,
799,
800,
801,
802,
803,
804,
805,
806,
807,
808,
809,
810,
811,
812,
813,
814,
815,
816,
817,
818,
819,
820,
821,
822,
823,
824,
825,
826,
827,
828,
829,
830,
831,
832,
833,
834,
835,
836,
837,
838,
839,
840,
841,
842,
843,
844,
845,
846,
847,
848,
849,
850,
851,
852,
853,
854,
855,
856,
857,
858,
859,
860,
861,
862,
863,
864,
865,
866,
867,
868,
869,
870,
871,
872,
873,
874,
875,
876,
877,
878,
879,
880,
881,
882,
883,
884,
885,
886,
887,
888,
889,
890,
891,
892,
893,
894,
895,
896,
897,
898,
899,
900,
901,
902,
903,
904,
905,
906,
907,
908,
909,
910,
911,
912,
913,
914,
915,
916,
917,
918,
919,
920,
921,
922,
923,
924,
925,
926,
927,
928,
929,
930,
931,
932,
933,
934,
935,
936,
937,
938,
939,
940,
941,
942,
943,
944,
945,
946,
947,
948,
949,
950,
951,
952,
953,
954,
955,
956,
957,
958,
959,
960,
961,
962,
963,
964,
965,
966,
967,
968,
969,
970,
971,
972,
973,
974,
975,
976,
977,
978,
979,
980,
981,
982,
983,
984,
985,
986,
987,
988,
989,
990,
991,
992,
993,
994,
995,
996,
997,
998,
999,
1000,
1001,
1002,
1003,
1004,
1005,
1006,
1007,
1008,
1009,
1010,
1011,
1012,
1013,
1014,
1015,
1016,
1017,
1018,
1019,
1020,
1021,
1022,
1023,
1024,
1025,
1026,
1027,
1028,
1029,
1030,
1031,
1032,
1033,
1034,
1035,
1036,
1037,
1038,
1039,
1040,
1041,
1042,
1043,
1044,
1045,
1046,
1047,
1048,
1049,
1050,
1051,
1052,
1053,
1054,
1055,
1056,
1057,
1058,
1059,
1060,
1061,
1062,
1063,
1064,
1065,
1066,
1067,
1068,
1069,
1070,
1071,
1072,
1073,
1074,
1075,
1076,
1077,
1078,
1079,
1080,
1081,
1082,
1083,
1084,
1085,
1086,
1087,
1088,
1089,
1090,
1091,
1092,
1093,
1094,
1095,
1096,
1097,
1098,
1099,
1100,
1101,
1102,
1103,
1104,
1105,
1106,
1107,
1108,
1109,
1110,
1111,
1112,
1113,
1114,
1115,
1116,
1117,
1118,
1119,
1120,
1121,
1122,
1123,
1124,
1125,
1126,
1127,
1128,
1129,
1130,
1131,
1132,
1133,
1134,
1135,
1136,
1137,
1138,
1139,
1140,
1141,
1142,
1143,
1144,
1145,
1146,
1147,
1148,
1149,
1150,
1151,
1152,
1153,
1154,
1155,
1156,
1157,
1158,
1159,
1160,
1161,
1162,
1163,
1164,
1165,
1166,
1167,
1168,
1169,
1170,
1171,
1172,
1173,
1174,
1175,
1176,
1177,
1178,
1179,
1180,
1181,
1182,
1183,
1184,
1185,
1186,
1187,
1188,
1189,
1190,
1191,
1192,
1193,
1194,
1195,
1196,
1197,
1198,
1199,
1200,
1201,
1202,
1203,
1204,
1205,
1206,
1207,
1208,
1209,
1210,
1211,
1212,
1213,
1214,
1215,
1216,
1217,
1218,
1219,
1220,
1221,
1222,
1223,
1224,
1225,
1226,
1227,
1228,
1229,
1230,
1231,
1232,
1233,
1234,
1235,
1236,
1237,
1238,
1239,
1240,
1241,
1242,
1243,
1244,
1245,
1246,
1247,
1248,
1249,
1250,
1251,
1252,
1253,
1254,
1255,
1256,
1257,
1258,
1259,
1260,
1261,
1262,
1263,
1264,
1265,
1266,
1267,
1268,
1269,
1270,
1271,
1272,
1273,
1274,
1275,
1276,
1277,
1278,
1279,
1280,
1281,
1282,
1283,
1284,
1285,
1286,
1287,
1288,
1289,
1290,
1291,
1292,
1293,
1294,
1295,
1296,
1297,
1298,
1299,
1300,
1301,
1302,
1303,
1304,
1305,
1306,
1307,
1308,
1309,
1310,
1311,
1312,
1313,
1314,
1315,
1316,
1317,
1318,
1319,
1320,
1321,
1322,
1323,
1324,
1325,
1326,
1327,
1328,
1329,
1330,
1331,
1332,
1333,
1334,
1335,
1336,
1337,
1338,
1339,
1340,
1341,
1342,
1343,
1344,
1345,
1346,
1347,
1348,
1349,
1350,
1351,
1352,
1353,
1354,
1355,
1356,
1357,
1358,
1359,
1360,
1361,
1362,
1363,
1364,
1365,
1366,
1367,
1368,
1369,
1370,
1371,
1372,
1373,
1374,
1375,
1376,
1377,
1378,
1379,
1380,
1381,
1382,
1383,
1384,
1385,
1386,
1387,
1388,
1389,
1390,
1391,
1392,
1393,
1394,
1395,
1396,
1397,
1398,
1399,
1400,
1401,
1402,
1403,
1404,
1405,
1406,
1407,
1408,
1409,
1410,
1411,
1412,
1413,
1414,
1415,
1416,
1417,
1418,
1419,
1420,
1421,
1422,
1423,
1424,
1425,
1426,
1427,
1428,
1429,
1430,
1431,
1432,
1433,
1434,
1435,
1436,
1437,
1438,
1439,
1440,
1441,
1442,
1443,
1444,
1445,
1446,
1447,
1448,
1449,
1450,
1451,
1452,
1453,
1454,
1455,
1456,
1457,
1458,
1459,
1460,
1461,
1462,
1463,
1464,
1465,
1466,
1467,
1468,
1469,
1470,
1471,
1472,
1473,
1474,
1475,
1476,
1477,
1478,
1479,
1480,
1481,
1482,
1483,
1484,
1485,
1486,
1487,
1488,
1489,
1490,
1491,
1492,
1493,
1494,
1495,
1496,
1497,
1498,
1499,
1500,
1501,
1502,
1503,
1504,
1505,
1506,
1507,
1508,
1509,
1510,
1511,
1512,
1513,
1514,
1515,
1516,
1517,
1518,
1519,
1520,
1521,
1522,
1523,
1524,
1525,
1526,
1527,
1528,
1529,
1530,
1531,
1532,
1533,
1534,
1535,
1536,
1537,
1538,
1539,
1540,
1541,
1542,
1543,
1544,
1545,
1546,
1547,
1548,
1549,
1550,
1551,
1552,
1553,
1554,
1555,
1556,
1557,
1558,
1559,
1560,
1561,
1562,
1563,
1564,
1565,
1566,
1567,
1568,
1569,
1570,
1571,
1572,
1573,
1574,
1575,
1576,
1577,
1578,
1579,
1580,
1581,
1582,
1583,
1584,
1585,
1586,
1587,
1588,
1589,
1590,
1591,
1592,
1593,
1594,
1595,
1596,
1597,
1598,
1599,
1600,
1601,
1602,
1603,
1604,
1605,
1606,
1607,
1608,
1609,
1610,
1611,
1612,
1613,
1614,
1615,
1616,
1617,
1618,
1619,
1620,
1621,
1622,
1623,
1624,
1625,
1626,
1627,
1628,
1629,
1630,
1631,
1632,
1633,
1634,
1635,
1636,
1637,
1638,
1639,
1640,
1641,
1642,
1643,
1644,
1645,
1646,
1647,
1648,
1649,
1650,
1651,
1652,
1653,
1654,
1655,
1656,
1657,
1658,
1659,
1660,
1661,
1662,
1663,
1664,
1665,
1666,
1667,
1668,
1669,
1670,
1671,
1672,
1673,
1674,
1675,
1676,
1677,
1678,
1679,
1680,
1681,
1682,
1683,
1684,
1685,
1686,
1687,
1688,
1689,
1690,
1691,
1692,
1693,
1694,
1695,
1696,
1697,
1698,
1699,
1700,
1701,
1702,
1703,
1704,
1705,
1706,
1707,
1708,
1709,
1710,
1711,
1712,
1713,
1714,
1715,
1716,
1717,
1718,
1719,
1720,
1721,
1722,
1723,
1724,
1725,
1726,
1727,
1728,
1729,
1730,
1731,
1732,
1733,
1734,
1735,
1736,
1737,
1738,
1739,
1740,
1741,
1742,
1743,
1744,
1745,
1746,
1747,
1748,
1749,
1750,
1751,
1752,
1753,
1754,
1755,
1756,
1757,
1758,
1759,
1760,
1761,
1762,
1763,
1764,
1765,
1766,
1767,
1768,
1769,
1770,
1771,
1772,
1773,
1774,
1775,
1776,
1777,
1778,
1779,
1780,
1781,
1782,
1783,
1784,
1785,
1786,
1787,
1788,
1789,
1790,
1791,
1792,
1793,
1794,
1795,
1796,
1797,
1798,
1799,
1800,
1801,
1802,
1803,
1804,
1805,
1806,
1807,
1808,
1809,
1810,
1811,
1812,
1813,
1814,
1815,
1816,
1817,
1818,
1819,
1820,
1821,
1822,
1823,
1824,
1825,
1826,
1827,
1828,
1829,
1830,
1831,
1832,
1833,
1834,
1835,
1836,
1837,
1838,
1839,
1840,
1841,
1842,
1843,
1844,
1845,
1846,
1847,
1848,
1849,
1850,
1851,
1852,
1853,
1854,
1855,
1856,
1857,
1858,
1859,
1860,
1861,
1862,
1863,
1864,
1865,
1866,
1867,
1868,
1869,
1870,
1871,
1872,
1873,
1874,
1875,
1876,
1877,
1878,
1879,
1880,
1881,
1882,
1883,
1884,
1885,
1886,
1887,
1888,
1889,
1890,
1891,
1892,
1893,
1894,
1895,
1896,
1897,
1898,
1899,
1900,
1901,
1902,
1903,
1904,
1905,
1906,
1907,
1908,
1909,
1910,
1911,
1912,
1913,
1914,
1915,
1916,
1917,
1918,
1919,
1920,
1921,
1922,
1923,
1924,
1925,
1926,
1927,
1928,
1929,
1930,
1931,
1932,
1933,
1934,
1935,
1936,
1937,
1938,
1939,
1940,
1941,
1942,
1943,
1944,
1945,
1946,
1947,
1948,
1949,
1950,
1951,
1952,
1953,
1954,
1955,
1956,
1957,
1958,
1959,
1960,
1961,
1962,
1963,
1964,
1965,
1966,
1967,
1968,
1969,
1970,
1971,
1972,
1973,
1974,
1975,
1976,
1977,
1978,
1979,
1980,
1981,
1982,
1983,
1984,
1985,
1986,
1987,
1988,
1989,
1990,
1991,
1992,
1993,
1994,
1995,
1996,
1997,
1998,
1999,
2000,
2001,
2002,
2003,
2004,
2005,
2006,
2007,
2008,
2009,
2010,
2011,
2012,
2013,
2014,
2015,
2016,
2017,
2018,
2019,
2020,
2021,
2022,
2023,
2024,
2025,
2026,
2027,
2028,
2029,
2030,
2031,
2032,
2033,
2034,
2035,
2036,
2037,
2038,
2039,
2040,
2041,
2042,
2043,
2044,
2045,
2046,
2047,
2048,
2049,
2050,
2051,
2052,
2053,
2054,
2055,
2056,
2057,
2058,
2059,
2060,
2061,
2062,
2063,
2064,
2065,
2066,
2067,
2068,
2069,
2070,
2071,
2072,
2073,
2074,
2075,
2076,
2077,
2078,
2079,
2080,
2081,
2082,
2083,
2084,
2085,
2086,
2087,
2088,
2089,
2090,
2091,
2092,
2093,
2094,
2095,
2096,
2097,
2098,
2099,
2100,
2101,
2102,
2103,
2104,
2105,
2106,
2107,
2108,
2109,
2110,
2111,
2112,
2113,
2114,
2115,
2116,
2117,
2118,
2119,
2120,
2121,
2122,
2123,
2124,
2125,
2126,
2127,
2128,
2129,
2130,
2131,
2132,
2133,
2134,
2135,
2136,
2137,
2138,
2139,
2140,
2141,
2142,
2143,
2144,
2145,
2146,
2147,
2148,
2149,
2150,
2151,
2152,
2153,
2154,
2155,
2156,
2157,
2158,
2159,
2160,
2161,
2162,
2163,
2164,
2165,
2166,
2167,
2168,
2169,
2170,
2171,
2172,
2173,
2174,
2175,
2176,
2177,
2178,
2179,
2180,
2181,
2182,
2183,
2184,
2185,
2186,
2187,
2188,
2189,
2190,
2191,
2192,
2193,
2194,
2195,
2196,
2197,
2198,
2199,
2200,
2201,
2202,
2203,
2204,
2205,
2206,
2207,
2208,
2209,
2210,
2211,
2212,
2213,
2214,
2215,
2216,
2217,
2218,
2219,
2220,
2221,
2222,
2223,
2224,
2225,
2226,
2227,
2228,
2229,
2230,
2231,
2232,
2233,
2234,
2235,
2236,
2237,
2238,
2239,
2240,
2241,
2242,
2243,
2244,
2245,
2246,
2247,
2248,
2249,
2250,
2251,
2252,
2253,
2254,
2255,
2256,
2257,
2258,
2259,
2260,
2261,
2262,
2263,
2264,
2265,
2266,
2267,
2268,
2269,
2270,
2271,
2272,
2273,
2274,
2275,
2276,
2277,
2278,
2279,
2280,
2281,
2282,
2283,
2284,
2285,
2286,
2287,
2288,
2289,
2290,
2291,
2292,
2293,
2294,
2295,
2296,
2297,
2298,
2299,
2300,
2301,
2302,
2303,
2304,
2305,
2306,
2307,
2308,
2309,
2310,
2311,
2312,
2313,
2314,
2315,
2316,
2317,
2318,
2319,
2320,
2321,
2322,
2323,
2324,
2325,
2326,
2327,
2328,
2329,
2330,
2331,
2332,
2333,
2334,
2335,
2336,
2337,
2338,
2339,
2340,
2341,
2342,
2343,
2344,
2345,
2346,
2347,
2348,
2349,
2350,
2351,
2352,
2353,
2354,
2355,
2356,
2357,
2358,
2359,
2360,
2361,
2362,
2363,
2364,
2365,
2366,
2367,
2368,
2369,
2370,
2371,
2372,
2373,
2374,
2375,
2376,
2377,
2378,
2379,
2380,
2381,
2382,
2383,
2384,
2385,
2386,
2387,
2388,
2389,
2390,
2391,
2392,
2393,
2394,
2395,
2396,
2397,
2398,
2399,
2400,
2401,
2402,
2403,
2404,
2405,
2406,
2407,
2408,
2409,
2410,
2411,
2412,
2413,
2414,
2415,
2416,
2417,
2418,
2419,
2420,
2421,
2422,
2423,
2424,
2425,
2426,
2427,
2428,
2429,
2430,
2431,
2432,
2433,
2434,
2435,
2436,
2437,
2438,
2439,
2440,
2441,
2442,
2443,
2444,
2445,
2446,
2447,
2448,
2449,
2450,
2451,
2452,
2453,
2454,
2455,
2456,
2457,
2458,
2459,
2460,
2461,
2462,
2463,
2464,
2465,
2466,
2467,
2468,
2469,
2470,
2471,
2472,
2473,
2474,
2475,
2476,
2477,
2478,
2479,
2480,
2481,
2482,
2483,
2484,
2485,
2486,
2487,
2488,
2489,
2490,
2491,
2492,
2493,
2494,
2495,
2496,
2497,
2498,
2499,
2500,
2501,
2502,
2503,
2504,
2505,
2506,
2507,
2508,
2509,
2510,
2511,
2512,
2513,
2514,
2515,
2516,
2517,
2518,
2519,
2520,
2521,
2522,
2523,
2524,
2525,
2526,
2527,
2528,
2529,
2530,
2531,
2532,
2533,
2534,
2535,
2536,
2537,
2538,
2539,
2540,
2541,
2542,
2543,
2544,
2545,
2546,
2547,
2548,
2549,
2550,
2551,
2552,
2553,
2554,
2555,
2556,
2557,
2558,
2559,
2560,
2561,
2562,
2563,
2564,
2565,
2566,
2567,
2568,
2569,
2570,
2571,
2572,
2573,
2574,
2575,
2576,
2577,
2578,
2579,
2580,
2581,
2582,
2583,
2584,
2585,
2586,
2587,
2588,
2589,
2590,
2591,
2592,
2593,
2594,
2595,
2596,
2597,
2598,
2599,
2600,
2601,
2602,
2603,
2604,
2605,
2606,
2607,
2608,
2609,
2610,
2611,
2612,
2613,
2614,
2615,
2616,
2617,
2618,
2619,
2620,
2621,
2622,
2623,
2624,
2625,
2626,
2627,
2628,
2629,
2630,
2631,
2632,
2633,
2634,
2635,
2636,
2637,
2638,
2639,
2640,
2641,
2642,
2643,
2644,
2645,
2646,
2647,
2648,
2649,
2650,
2651,
2652,
2653,
2654,
2655,
2656,
2657,
2658,
2659,
2660,
2661,
2662,
2663,
2664,
2665,
2666,
2667,
2668,
2669,
2670,
2671,
2672,
2673,
2674,
2675,
2676,
2677,
2678,
2679,
2680,
2681,
2682,
2683,
2684,
2685,
2686,
2687,
2688,
2689,
2690,
2691,
2692,
2693,
2694,
2695,
2696,
2697,
2698,
2699,
2700,
2701,
2702,
2703,
2704,
2705,
2706,
2707,
2708,
2709,
2710,
2711,
2712,
2713,
2714,
2715,
2716,
2717,
2718,
2719,
2720,
2721,
2722,
2723,
2724,
2725,
2726,
2727,
2728,
2729,
2730,
2731,
2732,
2733,
2734,
2735,
2736,
2737,
2738,
2739,
2740,
2741,
2742,
2743,
2744,
2745,
2746,
2747,
2748,
2749,
2750,
2751,
2752,
2753,
2754,
2755,
2756,
2757,
2758,
2759,
2760,
2761,
2762,
2763,
2764,
2765,
2766,
2767,
2768,
2769,
2770,
2771,
2772,
2773,
2774,
2775,
2776,
2777,
2778,
2779,
2780,
2781,
2782,
2783,
2784,
2785,
2786,
2787,
2788,
2789,
2790,
2791,
2792,
2793,
2794,
2795,
2796,
2797,
2798,
2799,
2800,
2801,
2802,
2803,
2804,
2805,
2806,
2807,
2808,
2809,
2810,
2811,
2812,
2813,
2814,
2815,
2816,
2817,
2818,
2819,
2820,
2821,
2822,
2823,
2824,
2825,
2826,
2827,
2828,
2829,
2830,
2831,
2832,
2833,
2834,
2835,
2836,
2837,
2838,
2839,
2840,
2841,
2842,
2843,
2844,
2845,
2846,
2847,
2848,
2849,
2850,
2851,
2852,
2853,
2854,
2855,
2856,
2857,
2858,
2859,
2860,
2861,
2862,
2863,
2864,
2865,
2866,
2867,
2868,
2869,
2870,
2871,
2872,
2873,
2874,
2875,
2876,
2877,
2878,
2879,
2880,
2881,
2882,
2883,
2884,
2885,
2886,
2887,
2888,
2889,
2890,
2891,
2892,
2893,
2894,
2895,
2896,
2897,
2898,
2899,
2900,
2901,
2902,
2903,
2904,
2905,
2906,
2907,
2908,
2909,
2910,
2911,
2912,
2913,
2914,
2915,
2916,
2917,
2918,
2919,
2920,
2921,
2922,
2923,
2924,
2925,
2926,
2927,
2928,
2929,
2930,
2931,
2932,
2933,
2934,
2935,
2936,
2937,
2938,
2939,
2940,
2941,
2942,
2943,
2944,
2945,
2946,
2947,
2948,
2949,
2950,
2951,
2952,
2953,
2954,
2955,
2956,
2957,
2958,
2959,
2960,
2961,
2962,
2963,
2964,
2965,
2966,
2967,
2968,
2969,
2970,
2971,
2972,
2973,
2974,
2975,
2976,
2977,
2978,
2979,
2980,
2981,
2982,
2983,
2984,
2985,
2986,
2987,
2988,
2989,
2990,
2991,
2992,
2993,
2994,
2995,
2996,
2997,
2998,
2999,
3000,
3001,
3002,
3003,
3004,
3005,
3006,
3007,
3008,
3009,
3010,
3011,
3012,
3013,
3014,
3015,
3016,
3017,
3018,
3019,
3020,
3021,
3022,
3023,
3024,
3025,
3026,
3027,
3028,
3029,
3030,
3031,
3032,
3033,
3034,
3035,
3036,
3037,
3038,
3039,
3040,
3041,
3042,
3043,
3044,
3045,
3046,
3047,
3048,
3049,
3050,
3051,
3052,
3053,
3054,
3055,
3056,
3057,
3058,
3059,
3060,
3061,
3062,
3063,
3064,
3065,
3066,
3067,
3068,
